[TITLE]
;; Amsterdam canal ring -- BUI10 (T=10y) -- open-data SWMM rehearsal

[OPTIONS]
FLOW_UNITS CMS
INFILTRATION HORTON
FLOW_ROUTING DYNWAVE
LINK_OFFSETS DEPTH
START_DATE 01/01/2000
START_TIME 00:00:00
REPORT_START_DATE 01/01/2000
REPORT_START_TIME 00:00:00
END_DATE 01/01/2000
END_TIME 03:00:00
SWEEP_START 01/01
SWEEP_END 12/31
WET_STEP 00:01:00
DRY_STEP 00:05:00
ROUTING_STEP 00:00:05
REPORT_STEP 00:01:00
ALLOW_PONDING NO
INERTIAL_DAMPING PARTIAL
NORMAL_FLOW_LIMITED BOTH
FORCE_MAIN_EQUATION H-W
VARIABLE_STEP 0.75
LENGTHENING_STEP 00:00:20
MIN_SURFAREA 1.167
MAX_TRIALS 8
HEAD_TOLERANCE 0.0015
MINIMUM_STEP 0.5
THREADS 4

[RAINGAGES]
;;Name Format Interval SCF Source
RG1 INTENSITY 0:05 1.0 TIMESERIES bui10

[TIMESERIES]
;; bui10: official total/duration/peak, APPROXIMATED symmetric shape (mm/h)
bui10 0:00 0.000
bui10 0:05 19.873
bui10 0:10 38.761
bui10 0:15 52.880
bui10 0:20 64.886
bui10 0:25 75.600
bui10 0:30 64.886
bui10 0:35 52.880
bui10 0:40 38.761
bui10 0:45 19.873
bui10 0:50 0.000
bui10 0:55 0.0

[SUBCATCHMENTS]
;;Name Raingage Outlet Area(ha) %Imperv Width Slope CurbLen
C0 RG1 N1843 0.13231 87.2 26.46 0.5 0
C1 RG1 N353 0.11893 87.3 23.79 0.5 0
C2 RG1 N97 0.11789 93.0 23.58 0.5 0
C3 RG1 N1772 0.07578 95.2 15.16 0.5 0
C4 RG1 N1829 0.04367 94.6 8.73 0.5 0
C5 RG1 N3948 0.04142 87.5 8.28 0.5 0
C6 RG1 N495 0.01516 92.4 5.00 0.5 0
C7 RG1 N883 0.01897 98.4 5.00 0.5 0
C8 RG1 N844 0.01066 83.1 5.00 0.5 0
C9 RG1 N4163 0.02848 85.4 5.70 0.5 0
C10 RG1 N2239 0.06503 94.7 13.01 0.5 0
C11 RG1 N3726 0.08675 85.8 17.35 0.5 0
C12 RG1 N770 0.20470 80.8 40.94 0.5 0
C13 RG1 N1440 0.02827 96.5 5.65 0.5 0
C14 RG1 N2656 0.03747 89.5 7.49 0.5 0
C15 RG1 N593 0.04690 95.6 9.38 0.5 0
C16 RG1 N1289 0.03069 87.2 6.14 0.5 0
C17 RG1 N1875 0.02235 86.9 5.00 0.5 0
C18 RG1 N334 0.02923 84.5 5.85 0.5 0
C19 RG1 N65 0.04422 88.5 8.84 0.5 0
C20 RG1 N396 0.02104 97.7 5.00 0.5 0
C21 RG1 N1349 0.12039 93.9 24.08 0.5 0
C22 RG1 N3103 0.02765 91.1 5.53 0.5 0
C23 RG1 N2580 0.02151 96.3 5.00 0.5 0
C24 RG1 N3409 0.12377 82.9 24.75 0.5 0
C25 RG1 N955 0.02593 94.8 5.19 0.5 0
C26 RG1 N3393 0.06264 97.4 12.53 0.5 0
C27 RG1 N2215 0.03823 88.8 7.65 0.5 0
C28 RG1 N746 0.05151 96.0 10.30 0.5 0
C29 RG1 N4180 0.03584 90.3 7.17 0.5 0
C30 RG1 N2686 0.02602 89.4 5.20 0.5 0
C31 RG1 N2616 0.10960 90.5 21.92 0.5 0
C32 RG1 N156 0.08085 90.4 16.17 0.5 0
C33 RG1 N332 0.08187 90.4 16.37 0.5 0
C34 RG1 N3692 0.08016 83.9 16.03 0.5 0
C35 RG1 N871 0.09115 95.6 18.23 0.5 0
C36 RG1 N1579 0.04974 85.7 9.95 0.5 0
C37 RG1 N2726 0.02112 93.8 5.00 0.5 0
C38 RG1 N998 0.04507 94.7 9.01 0.5 0
C39 RG1 N2961 0.06098 93.6 12.20 0.5 0
C40 RG1 N1680 0.05566 86.7 11.13 0.5 0
C41 RG1 N3202 0.07094 87.4 14.19 0.5 0
C42 RG1 N296 0.10816 89.5 21.63 0.5 0
C43 RG1 N2102 0.23220 86.4 46.44 0.5 0
C44 RG1 N207 0.04924 88.7 9.85 0.5 0
C45 RG1 N1867 0.03406 91.3 6.81 0.5 0
C46 RG1 N429 0.02784 93.7 5.57 0.5 0
C47 RG1 N3039 0.05731 93.7 11.46 0.5 0
C48 RG1 N1430 0.02052 86.3 5.00 0.5 0
C49 RG1 N1559 0.05439 91.1 10.88 0.5 0
C50 RG1 N312 0.09189 91.2 18.38 0.5 0
C51 RG1 N2442 0.00418 71.8 5.00 0.5 0
C52 RG1 N4324 0.09097 81.8 18.19 0.5 0
C53 RG1 N623 0.02930 93.3 5.86 0.5 0
C54 RG1 N843 0.10965 84.0 21.93 0.5 0
C55 RG1 N810 0.08028 92.6 16.06 0.5 0
C56 RG1 N168 0.07974 76.8 15.95 0.5 0
C57 RG1 N1958 0.05921 91.6 11.84 0.5 0
C58 RG1 N4243 0.09959 80.2 19.92 0.5 0
C59 RG1 N1230 0.09831 84.7 19.66 0.5 0
C60 RG1 N3816 0.02776 87.6 5.55 0.5 0
C61 RG1 N150 0.09236 92.2 18.47 0.5 0
C62 RG1 N1799 0.09921 78.2 19.84 0.5 0
C63 RG1 N1521 0.07452 79.4 14.90 0.5 0
C64 RG1 N2049 0.04985 79.7 9.97 0.5 0
C65 RG1 N3995 0.06464 87.0 12.93 0.5 0
C66 RG1 N3805 0.05062 84.4 10.12 0.5 0
C67 RG1 N76 0.00794 87.0 5.00 0.5 0
C68 RG1 N367 0.11540 89.3 23.08 0.5 0
C69 RG1 N2471 0.20660 82.7 41.32 0.5 0
C70 RG1 N3032 0.17352 81.5 34.70 0.5 0
C71 RG1 N3851 0.17201 81.7 34.40 0.5 0
C72 RG1 N3694 0.08627 82.0 17.25 0.5 0
C73 RG1 N2831 0.07967 89.0 15.93 0.5 0
C74 RG1 N2351 0.13457 80.7 26.91 0.5 0
C75 RG1 N1059 0.03223 83.4 6.45 0.5 0
C76 RG1 N3535 0.15912 86.1 31.82 0.5 0
C77 RG1 N706 0.02701 85.5 5.40 0.5 0
C78 RG1 N3085 0.07047 90.2 14.09 0.5 0
C79 RG1 N2206 0.05657 92.8 11.31 0.5 0
C80 RG1 N3069 0.05397 89.3 10.79 0.5 0
C81 RG1 N249 0.05387 87.7 10.77 0.5 0
C82 RG1 N4308 0.10545 80.3 21.09 0.5 0
C83 RG1 N3845 0.03044 91.9 6.09 0.5 0
C84 RG1 N3158 0.14224 87.2 28.45 0.5 0
C85 RG1 N4047 0.14767 87.4 29.53 0.5 0
C86 RG1 N84 0.02918 87.3 5.84 0.5 0
C87 RG1 N322 0.05357 95.6 10.71 0.5 0
C88 RG1 N1150 0.02894 90.3 5.79 0.5 0
C89 RG1 N1307 0.07563 89.5 15.13 0.5 0
C90 RG1 N341 0.01309 79.4 5.00 0.5 0
C91 RG1 N1350 0.03800 89.7 7.60 0.5 0
C92 RG1 N4291 0.20567 92.4 41.13 0.5 0
C93 RG1 N2548 0.13368 77.3 26.74 0.5 0
C94 RG1 N3473 0.06537 88.7 13.07 0.5 0
C95 RG1 N2355 0.01326 87.4 5.00 0.5 0
C96 RG1 N3507 0.07011 85.3 14.02 0.5 0
C97 RG1 N1728 0.05712 85.3 11.42 0.5 0
C98 RG1 N692 0.05860 95.8 11.72 0.5 0
C99 RG1 N2073 0.16639 85.6 33.28 0.5 0
C100 RG1 N2011 0.03242 90.4 6.48 0.5 0
C101 RG1 N2353 0.13985 85.6 27.97 0.5 0
C102 RG1 N2845 0.11431 94.0 22.86 0.5 0
C103 RG1 N1560 0.04221 95.2 8.44 0.5 0
C104 RG1 N2618 0.02524 94.2 5.05 0.5 0
C105 RG1 N3621 0.14438 83.1 28.88 0.5 0
C106 RG1 N1926 0.06140 95.9 12.28 0.5 0
C107 RG1 N48 0.13376 93.1 26.75 0.5 0
C108 RG1 N1881 0.04141 93.8 8.28 0.5 0
C109 RG1 N1151 0.10794 76.6 21.59 0.5 0
C110 RG1 N540 0.03296 86.9 6.59 0.5 0
C111 RG1 N279 0.02462 90.8 5.00 0.5 0
C112 RG1 N3215 0.05795 86.3 11.59 0.5 0
C113 RG1 N3373 0.02085 89.4 5.00 0.5 0
C114 RG1 N1792 0.16426 89.7 32.85 0.5 0
C115 RG1 N3134 0.08023 74.8 16.05 0.5 0
C116 RG1 N3900 0.14304 79.3 28.61 0.5 0
C117 RG1 N305 0.11443 89.4 22.89 0.5 0
C118 RG1 N1402 0.04769 93.1 9.54 0.5 0
C119 RG1 N3075 0.02386 83.5 5.00 0.5 0
C120 RG1 N1370 0.09302 92.0 18.60 0.5 0
C121 RG1 N993 0.06379 82.8 12.76 0.5 0
C122 RG1 N1864 0.10372 89.4 20.74 0.5 0
C123 RG1 N808 0.04023 96.0 8.05 0.5 0
C124 RG1 N1331 0.04878 97.5 9.76 0.5 0
C125 RG1 N3856 0.00506 71.3 5.00 0.5 0
C126 RG1 N2817 0.13629 83.4 27.26 0.5 0
C127 RG1 N1161 0.26126 91.1 52.25 0.5 0
C128 RG1 N56 0.05990 89.8 11.98 0.5 0
C129 RG1 N740 0.06901 76.2 13.80 0.5 0
C130 RG1 N1511 0.06018 91.9 12.04 0.5 0
C131 RG1 N2421 0.06880 94.7 13.76 0.5 0
C132 RG1 N1063 0.02356 87.0 5.00 0.5 0
C133 RG1 N632 0.04155 82.3 8.31 0.5 0
C134 RG1 N3990 0.05675 95.7 11.35 0.5 0
C135 RG1 N3837 0.01580 87.9 5.00 0.5 0
C136 RG1 N3048 0.03387 94.0 6.77 0.5 0
C137 RG1 N1724 0.04646 96.8 9.29 0.5 0
C138 RG1 N765 0.09006 73.5 18.01 0.5 0
C139 RG1 N758 0.05751 79.5 11.50 0.5 0
C140 RG1 N3753 0.06920 89.8 13.84 0.5 0
C141 RG1 N3551 0.03322 90.6 6.64 0.5 0
C142 RG1 N932 0.08859 91.6 17.72 0.5 0
C143 RG1 N2191 0.11784 96.9 23.57 0.5 0
C144 RG1 N1974 0.06153 82.4 12.31 0.5 0
C145 RG1 N2330 0.04256 87.0 8.51 0.5 0
C146 RG1 N1221 0.04238 85.1 8.48 0.5 0
C147 RG1 N3479 0.06643 94.0 13.29 0.5 0
C148 RG1 N699 0.03379 86.9 6.76 0.5 0
C149 RG1 N3427 0.18042 81.6 36.08 0.5 0
C150 RG1 N2258 0.06509 97.0 13.02 0.5 0
C151 RG1 N827 0.06118 98.0 12.24 0.5 0
C152 RG1 N3537 0.01951 83.4 5.00 0.5 0
C153 RG1 N546 0.01654 91.5 5.00 0.5 0
C154 RG1 N1831 0.11115 71.0 22.23 0.5 0
C155 RG1 N4015 0.04132 88.6 8.26 0.5 0
C156 RG1 N280 0.07999 84.2 16.00 0.5 0
C157 RG1 N1768 0.02880 85.4 5.76 0.5 0
C158 RG1 N1184 0.06675 95.7 13.35 0.5 0
C159 RG1 N937 0.04591 96.0 9.18 0.5 0
C160 RG1 N254 0.08954 90.1 17.91 0.5 0
C161 RG1 N1791 0.05486 98.8 10.97 0.5 0
C162 RG1 N3858 0.06863 95.2 13.73 0.5 0
C163 RG1 N2283 0.08551 91.9 17.10 0.5 0
C164 RG1 N773 0.08251 90.7 16.50 0.5 0
C165 RG1 N1073 0.05747 89.7 11.49 0.5 0
C166 RG1 N4177 0.13950 88.6 27.90 0.5 0
C167 RG1 N2985 0.03921 80.1 7.84 0.5 0
C168 RG1 N1294 0.06683 83.6 13.37 0.5 0
C169 RG1 N3156 0.12230 92.6 24.46 0.5 0
C170 RG1 N3444 0.02165 91.4 5.00 0.5 0
C171 RG1 N2477 0.07147 92.3 14.29 0.5 0
C172 RG1 N3629 0.05029 91.8 10.06 0.5 0
C173 RG1 N4038 0.03573 94.6 7.15 0.5 0
C174 RG1 N2406 0.07450 90.2 14.90 0.5 0
C175 RG1 N4350 0.12984 91.6 25.97 0.5 0
C176 RG1 N2512 0.06477 91.8 12.95 0.5 0
C177 RG1 N3398 0.07533 96.6 15.07 0.5 0
C178 RG1 N3447 0.00980 90.7 5.00 0.5 0
C179 RG1 N3760 0.11088 95.5 22.18 0.5 0
C180 RG1 N1111 0.06549 80.3 13.10 0.5 0
C181 RG1 N4328 0.04500 86.0 9.00 0.5 0
C182 RG1 N3790 0.23876 90.8 47.75 0.5 0
C183 RG1 N4130 0.03717 93.8 7.43 0.5 0
C184 RG1 N1695 0.00526 74.4 5.00 0.5 0
C185 RG1 N4333 0.04845 91.7 9.69 0.5 0
C186 RG1 N2392 0.03133 87.8 6.27 0.5 0
C187 RG1 N3614 0.08083 95.8 16.17 0.5 0
C188 RG1 N3124 0.02294 87.2 5.00 0.5 0
C189 RG1 N2363 0.04986 84.7 9.97 0.5 0
C190 RG1 N3763 0.20964 90.7 41.93 0.5 0
C191 RG1 N1127 0.03113 88.3 6.23 0.5 0
C192 RG1 N541 0.00767 75.3 5.00 0.5 0
C193 RG1 N1516 0.09076 92.8 18.15 0.5 0
C194 RG1 N873 0.06088 87.3 12.18 0.5 0
C195 RG1 N1497 0.05325 76.7 10.65 0.5 0
C196 RG1 N3168 0.06227 91.5 12.45 0.5 0
C197 RG1 N2195 0.09662 98.4 19.32 0.5 0
C198 RG1 N3533 0.03182 82.1 6.36 0.5 0
C199 RG1 N2374 0.07662 96.5 15.32 0.5 0
C200 RG1 N604 0.07766 92.5 15.53 0.5 0
C201 RG1 N627 0.01620 86.8 5.00 0.5 0
C202 RG1 N1056 0.03562 91.0 7.12 0.5 0
C203 RG1 N1324 0.05934 87.6 11.87 0.5 0
C204 RG1 N664 0.05211 94.4 10.42 0.5 0
C205 RG1 N4353 0.01453 96.5 5.00 0.5 0
C206 RG1 N912 0.02927 93.6 5.85 0.5 0
C207 RG1 N4106 0.09601 89.3 19.20 0.5 0
C208 RG1 N3460 0.01426 85.3 5.00 0.5 0
C209 RG1 N1816 0.06157 93.0 12.31 0.5 0
C210 RG1 N2773 0.01581 93.7 5.00 0.5 0
C211 RG1 N1175 0.01523 88.0 5.00 0.5 0
C212 RG1 N1348 0.03207 85.7 6.41 0.5 0
C213 RG1 N2714 0.01174 87.6 5.00 0.5 0
C214 RG1 N3195 0.02681 91.0 5.36 0.5 0
C215 RG1 N3630 0.02237 83.6 5.00 0.5 0
C216 RG1 N822 0.05233 87.0 10.47 0.5 0
C217 RG1 N55 0.08456 94.7 16.91 0.5 0
C218 RG1 N2065 0.05719 88.1 11.44 0.5 0
C219 RG1 N2572 0.05956 90.7 11.91 0.5 0
C220 RG1 N2032 0.00790 80.8 5.00 0.5 0
C221 RG1 N2712 0.11199 89.8 22.40 0.5 0
C222 RG1 N4027 0.03170 91.5 6.34 0.5 0
C223 RG1 N380 0.03457 88.6 6.91 0.5 0
C224 RG1 N1154 0.21378 89.1 42.76 0.5 0
C225 RG1 N1533 0.02969 92.1 5.94 0.5 0
C226 RG1 N3883 0.03399 89.3 6.80 0.5 0
C227 RG1 N596 0.06094 91.7 12.19 0.5 0
C228 RG1 N2308 0.04801 80.0 9.60 0.5 0
C229 RG1 N1581 0.04214 86.6 8.43 0.5 0
C230 RG1 N1721 0.00886 84.5 5.00 0.5 0
C231 RG1 N848 0.09081 91.6 18.16 0.5 0
C232 RG1 N3467 0.02850 85.5 5.70 0.5 0
C233 RG1 N3721 0.05391 85.7 10.78 0.5 0
C234 RG1 N3705 0.04046 93.6 8.09 0.5 0
C235 RG1 N3204 0.01790 84.0 5.00 0.5 0
C236 RG1 N3542 0.03466 91.6 6.93 0.5 0
C237 RG1 N151 0.02346 87.3 5.00 0.5 0
C238 RG1 N1204 0.03360 84.0 6.72 0.5 0
C239 RG1 N2521 0.03084 92.1 6.17 0.5 0
C240 RG1 N1987 0.19804 95.5 39.61 0.5 0
C241 RG1 N3289 0.03276 90.6 6.55 0.5 0
C242 RG1 N2553 0.01385 87.8 5.00 0.5 0
C243 RG1 N63 0.00772 78.4 5.00 0.5 0
C244 RG1 N2757 0.19215 79.1 38.43 0.5 0
C245 RG1 N3391 0.08723 90.9 17.45 0.5 0
C246 RG1 N3670 0.05233 86.0 10.47 0.5 0
C247 RG1 N1415 0.01928 86.7 5.00 0.5 0
C248 RG1 N2593 0.11220 91.8 22.44 0.5 0
C249 RG1 N984 0.22611 90.1 45.22 0.5 0
C250 RG1 N1189 0.23317 93.1 46.63 0.5 0
C251 RG1 N132 0.05761 93.0 11.52 0.5 0
C252 RG1 N3764 0.02337 90.0 5.00 0.5 0
C253 RG1 N2007 0.07881 92.5 15.76 0.5 0
C254 RG1 N1205 0.04265 95.2 8.53 0.5 0
C255 RG1 N764 0.00856 86.3 5.00 0.5 0
C256 RG1 N2289 0.03757 85.9 7.51 0.5 0
C257 RG1 N4116 0.04138 84.2 8.28 0.5 0
C258 RG1 N3436 0.05949 84.5 11.90 0.5 0
C259 RG1 N1396 0.04956 82.3 9.91 0.5 0
C260 RG1 N3340 0.09580 93.1 19.16 0.5 0
C261 RG1 N1725 0.05357 92.0 10.71 0.5 0
C262 RG1 N183 0.03263 91.0 6.53 0.5 0
C263 RG1 N3079 0.04135 89.6 8.27 0.5 0
C264 RG1 N884 0.02664 86.8 5.33 0.5 0
C265 RG1 N1934 0.00795 85.0 5.00 0.5 0
C266 RG1 N300 0.11903 80.6 23.81 0.5 0
C267 RG1 N3136 0.06258 87.3 12.52 0.5 0
C268 RG1 N3214 0.11609 87.3 23.22 0.5 0
C269 RG1 N3536 0.10020 91.3 20.04 0.5 0
C270 RG1 N2770 0.29076 79.0 58.15 0.5 0
C271 RG1 N2396 0.04209 89.6 8.42 0.5 0
C272 RG1 N1733 0.05336 86.5 10.67 0.5 0
C273 RG1 N1601 0.03687 89.3 7.37 0.5 0
C274 RG1 N1835 0.00980 81.5 5.00 0.5 0
C275 RG1 N1142 0.02738 86.1 5.48 0.5 0
C276 RG1 N2317 0.01977 85.8 5.00 0.5 0
C277 RG1 N3406 0.00909 83.6 5.00 0.5 0
C278 RG1 N2164 0.03021 89.6 6.04 0.5 0
C279 RG1 N4260 0.05669 88.0 11.34 0.5 0
C280 RG1 N155 0.07346 97.0 14.69 0.5 0
C281 RG1 N381 0.08277 87.7 16.55 0.5 0
C282 RG1 N2955 0.29586 75.4 59.17 0.5 0
C283 RG1 N1139 0.04077 89.4 8.15 0.5 0
C284 RG1 N3109 0.05980 81.0 11.96 0.5 0
C285 RG1 N1057 0.27913 86.6 55.83 0.5 0
C286 RG1 N1148 0.03876 91.4 7.75 0.5 0
C287 RG1 N3148 0.06220 87.2 12.44 0.5 0
C288 RG1 N1592 0.13056 93.2 26.11 0.5 0
C289 RG1 N1276 0.02141 85.0 5.00 0.5 0
C290 RG1 N786 0.02775 92.7 5.55 0.5 0
C291 RG1 N943 0.05109 90.3 10.22 0.5 0
C292 RG1 N3592 0.01562 86.1 5.00 0.5 0
C293 RG1 N3163 0.02199 86.5 5.00 0.5 0
C294 RG1 N1850 0.04111 85.8 8.22 0.5 0
C295 RG1 N3242 0.04774 97.5 9.55 0.5 0
C296 RG1 N2660 0.01499 86.6 5.00 0.5 0
C297 RG1 N2927 0.03353 95.6 6.71 0.5 0
C298 RG1 N3649 0.10500 80.6 21.00 0.5 0
C299 RG1 N952 0.09476 91.6 18.95 0.5 0
C300 RG1 N1593 0.08599 93.5 17.20 0.5 0
C301 RG1 N2347 0.03685 89.7 7.37 0.5 0
C302 RG1 N3280 0.10493 83.0 20.99 0.5 0
C303 RG1 N3265 0.27563 88.2 55.13 0.5 0
C304 RG1 N2851 0.24400 89.1 48.80 0.5 0
C305 RG1 N484 0.06445 91.1 12.89 0.5 0
C306 RG1 N3227 0.02183 85.2 5.00 0.5 0
C307 RG1 N310 0.04002 86.6 8.00 0.5 0
C308 RG1 N61 0.05464 89.5 10.93 0.5 0
C309 RG1 N621 0.10511 88.0 21.02 0.5 0
C310 RG1 N1655 0.03343 94.3 6.69 0.5 0
C311 RG1 N3322 0.03616 96.3 7.23 0.5 0
C312 RG1 N2966 0.05963 93.3 11.93 0.5 0
C313 RG1 N2883 0.02085 82.6 5.00 0.5 0
C314 RG1 N2692 0.10492 91.5 20.98 0.5 0
C315 RG1 N1265 0.03102 90.6 6.20 0.5 0
C316 RG1 N1363 0.30003 81.0 60.01 0.5 0
C317 RG1 N225 0.27990 81.7 55.98 0.5 0
C318 RG1 N1442 0.04726 97.6 9.45 0.5 0
C319 RG1 N3164 0.04881 93.0 9.76 0.5 0
C320 RG1 N3129 0.13506 95.5 27.01 0.5 0
C321 RG1 N3255 0.04373 88.9 8.75 0.5 0
C322 RG1 N2758 0.07187 84.9 14.37 0.5 0
C323 RG1 N1168 0.05950 87.3 11.90 0.5 0
C324 RG1 N499 0.03029 91.4 6.06 0.5 0
C325 RG1 N643 0.06547 86.9 13.09 0.5 0
C326 RG1 N3211 0.18182 93.0 36.36 0.5 0
C327 RG1 N1045 0.01187 78.4 5.00 0.5 0
C328 RG1 N1481 0.27550 82.1 55.10 0.5 0
C329 RG1 N379 0.05034 89.1 10.07 0.5 0
C330 RG1 N3853 0.34010 89.7 68.02 0.5 0
C331 RG1 N2748 0.03175 88.1 6.35 0.5 0
C332 RG1 N1886 0.01343 91.2 5.00 0.5 0
C333 RG1 N3451 0.02194 85.0 5.00 0.5 0
C334 RG1 N1723 0.03182 72.3 6.36 0.5 0
C335 RG1 N3001 0.25515 85.1 51.03 0.5 0
C336 RG1 N3828 0.04668 82.1 9.34 0.5 0
C337 RG1 N2336 0.21167 96.4 42.33 0.5 0
C338 RG1 N1242 0.02643 95.9 5.29 0.5 0
C339 RG1 N785 0.03709 90.2 7.42 0.5 0
C340 RG1 N4232 0.03171 86.1 6.34 0.5 0
C341 RG1 N223 0.02041 90.0 5.00 0.5 0
C342 RG1 N2327 0.04951 88.5 9.90 0.5 0
C343 RG1 N1228 0.06756 89.8 13.51 0.5 0
C344 RG1 N376 0.09675 85.4 19.35 0.5 0
C345 RG1 N221 0.07766 91.1 15.53 0.5 0
C346 RG1 N996 0.04534 82.8 9.07 0.5 0
C347 RG1 N1041 0.13883 94.7 27.77 0.5 0
C348 RG1 N436 0.11011 85.8 22.02 0.5 0
C349 RG1 N3033 0.01300 88.8 5.00 0.5 0
C350 RG1 N3651 0.01705 92.9 5.00 0.5 0
C351 RG1 N906 0.02515 88.2 5.03 0.5 0
C352 RG1 N3803 0.03001 95.0 6.00 0.5 0
C353 RG1 N81 0.03722 94.5 7.44 0.5 0
C354 RG1 N1882 0.07555 89.8 15.11 0.5 0
C355 RG1 N2837 0.04872 69.9 9.74 0.5 0
C356 RG1 N1326 0.03017 93.4 6.03 0.5 0
C357 RG1 N2711 0.01988 95.8 5.00 0.5 0
C358 RG1 N2684 0.02867 93.5 5.73 0.5 0
C359 RG1 N1225 0.05433 95.5 10.87 0.5 0
C360 RG1 N2813 0.08611 80.6 17.22 0.5 0
C361 RG1 N2422 0.08106 85.7 16.21 0.5 0
C362 RG1 N739 0.01057 71.8 5.00 0.5 0
C363 RG1 N625 0.04330 85.2 8.66 0.5 0
C364 RG1 N580 0.11043 87.8 22.09 0.5 0
C365 RG1 N1600 0.11243 89.8 22.49 0.5 0
C366 RG1 N3775 0.01514 92.3 5.00 0.5 0
C367 RG1 N4309 0.00768 86.2 5.00 0.5 0
C368 RG1 N4092 0.02346 63.2 5.00 0.5 0
C369 RG1 N3921 0.02862 92.4 5.72 0.5 0
C370 RG1 N4290 0.08620 83.8 17.24 0.5 0
C371 RG1 N3385 0.06248 93.6 12.50 0.5 0
C372 RG1 N2497 0.07669 92.4 15.34 0.5 0
C373 RG1 N1462 0.04214 93.0 8.43 0.5 0
C374 RG1 N3580 0.07595 92.9 15.19 0.5 0
C375 RG1 N1394 0.11067 82.2 22.13 0.5 0
C376 RG1 N2699 0.11075 88.7 22.15 0.5 0
C377 RG1 N4144 0.03645 91.2 7.29 0.5 0
C378 RG1 N245 0.00887 81.7 5.00 0.5 0
C379 RG1 N607 0.23507 94.0 47.01 0.5 0
C380 RG1 N4336 0.07502 90.4 15.00 0.5 0
C381 RG1 N2611 0.02261 83.7 5.00 0.5 0
C382 RG1 N4363 0.04520 93.8 9.04 0.5 0
C383 RG1 N1570 0.13033 83.2 26.07 0.5 0
C384 RG1 N4349 0.09485 94.3 18.97 0.5 0
C385 RG1 N1002 0.12211 95.4 24.42 0.5 0
C386 RG1 N1939 0.03913 92.5 7.83 0.5 0
C387 RG1 N2081 0.00961 82.7 5.00 0.5 0
C388 RG1 N418 0.05728 92.6 11.46 0.5 0
C389 RG1 N3641 0.02814 89.8 5.63 0.5 0
C390 RG1 N1065 0.06297 92.2 12.59 0.5 0
C391 RG1 N2135 0.19514 89.7 39.03 0.5 0
C392 RG1 N3240 0.03875 93.3 7.75 0.5 0
C393 RG1 N1960 0.02222 84.7 5.00 0.5 0
C394 RG1 N921 0.08370 93.2 16.74 0.5 0
C395 RG1 N2742 0.15445 89.0 30.89 0.5 0
C396 RG1 N336 0.03497 89.7 6.99 0.5 0
C397 RG1 N328 0.06023 87.2 12.05 0.5 0
C398 RG1 N1028 0.03507 79.1 7.01 0.5 0
C399 RG1 N368 0.12785 84.3 25.57 0.5 0
C400 RG1 N2458 0.07435 94.1 14.87 0.5 0
C401 RG1 N3463 0.08027 89.5 16.05 0.5 0
C402 RG1 N255 0.07891 86.6 15.78 0.5 0
C403 RG1 N289 0.03093 88.5 6.19 0.5 0
C404 RG1 N1408 0.10325 94.1 20.65 0.5 0
C405 RG1 N2335 0.12357 88.1 24.71 0.5 0
C406 RG1 N1554 0.04923 88.9 9.85 0.5 0
C407 RG1 N2034 0.10521 90.3 21.04 0.5 0
C408 RG1 N2077 0.02671 90.1 5.34 0.5 0
C409 RG1 N1479 0.32829 75.3 65.66 0.5 0
C410 RG1 N2086 0.02387 83.9 5.00 0.5 0
C411 RG1 N1671 0.08132 94.2 16.26 0.5 0
C412 RG1 N1134 0.10078 88.0 20.16 0.5 0
C413 RG1 N2601 0.07884 87.9 15.77 0.5 0
C414 RG1 N405 0.11136 91.3 22.27 0.5 0
C415 RG1 N2778 0.03936 89.2 7.87 0.5 0
C416 RG1 N2407 0.07945 95.5 15.89 0.5 0
C417 RG1 N2846 0.08640 89.1 17.28 0.5 0
C418 RG1 N2038 0.09291 85.3 18.58 0.5 0
C419 RG1 N1945 0.03772 90.2 7.54 0.5 0
C420 RG1 N1973 0.04185 86.1 8.37 0.5 0
C421 RG1 N477 0.03327 89.8 6.65 0.5 0
C422 RG1 N1141 0.18366 95.8 36.73 0.5 0
C423 RG1 N974 0.04018 89.3 8.04 0.5 0
C424 RG1 N4238 0.17017 91.3 34.03 0.5 0
C425 RG1 N3441 0.20095 87.8 40.19 0.5 0
C426 RG1 N598 0.10141 96.0 20.28 0.5 0
C427 RG1 N3094 0.07316 95.4 14.63 0.5 0
C428 RG1 N3417 0.02783 90.0 5.57 0.5 0
C429 RG1 N1362 0.12375 85.8 24.75 0.5 0
C430 RG1 N4338 0.21086 85.4 42.17 0.5 0
C431 RG1 N3266 0.05962 92.2 11.92 0.5 0
C432 RG1 N3217 0.05519 93.0 11.04 0.5 0
C433 RG1 N3207 0.03518 91.8 7.04 0.5 0
C434 RG1 N2466 0.02570 86.7 5.14 0.5 0
C435 RG1 N3529 0.09799 95.9 19.60 0.5 0
C436 RG1 N1827 0.12704 79.1 25.41 0.5 0
C437 RG1 N3547 0.04706 92.8 9.41 0.5 0
C438 RG1 N3272 0.05314 90.6 10.63 0.5 0
C439 RG1 N2145 0.12620 92.5 25.24 0.5 0
C440 RG1 N3133 0.12877 76.2 25.75 0.5 0
C441 RG1 N2097 0.11446 92.3 22.89 0.5 0
C442 RG1 N2094 0.12396 78.4 24.79 0.5 0
C443 RG1 N2147 0.07134 85.3 14.27 0.5 0
C444 RG1 N2950 0.12546 84.0 25.09 0.5 0
C445 RG1 N1795 0.08443 91.7 16.89 0.5 0
C446 RG1 N3353 0.04643 88.9 9.29 0.5 0
C447 RG1 N721 0.04964 86.2 9.93 0.5 0
C448 RG1 N2949 0.09040 89.1 18.08 0.5 0
C449 RG1 N2043 0.03158 93.7 6.32 0.5 0
C450 RG1 N3150 0.04819 92.5 9.64 0.5 0
C451 RG1 N3652 0.21304 79.6 42.61 0.5 0
C452 RG1 N978 0.03512 96.2 7.02 0.5 0
C453 RG1 N1372 0.05292 95.5 10.58 0.5 0
C454 RG1 N399 0.02719 97.0 5.44 0.5 0
C455 RG1 N3213 0.05089 91.7 10.18 0.5 0
C456 RG1 N1029 0.05297 80.8 10.59 0.5 0
C457 RG1 N147 0.10068 91.3 20.14 0.5 0
C458 RG1 N2463 0.05717 95.6 11.43 0.5 0
C459 RG1 N1938 0.18097 80.5 36.19 0.5 0
C460 RG1 N927 0.06189 84.9 12.38 0.5 0
C461 RG1 N2862 0.57555 79.8 115.11 0.5 0
C462 RG1 N3901 0.03736 90.0 7.47 0.5 0
C463 RG1 N2534 0.08852 87.6 17.70 0.5 0
C464 RG1 N4257 0.14404 91.8 28.81 0.5 0
C465 RG1 N1118 0.05137 97.8 10.27 0.5 0
C466 RG1 N3495 0.03266 93.4 6.53 0.5 0
C467 RG1 N1202 0.19005 88.2 38.01 0.5 0
C468 RG1 N3003 0.04773 91.9 9.55 0.5 0
C469 RG1 N3665 0.12271 84.3 24.54 0.5 0
C470 RG1 N4098 0.05189 91.8 10.38 0.5 0
C471 RG1 N816 0.04945 91.5 9.89 0.5 0
C472 RG1 N1494 0.07173 94.0 14.35 0.5 0
C473 RG1 N1619 0.02905 97.8 5.81 0.5 0
C474 RG1 N3466 0.03183 95.9 6.37 0.5 0
C475 RG1 N2779 0.42080 83.9 84.16 0.5 0
C476 RG1 N3926 0.07718 82.2 15.44 0.5 0
C477 RG1 N483 0.11586 82.4 23.17 0.5 0
C478 RG1 N787 0.00937 87.1 5.00 0.5 0
C479 RG1 N1961 0.11767 83.0 23.53 0.5 0
C480 RG1 N1870 0.40610 81.9 81.22 0.5 0
C481 RG1 N820 0.09070 96.8 18.14 0.5 0
C482 RG1 N2639 0.11148 80.2 22.30 0.5 0
C483 RG1 N533 0.11612 93.7 23.22 0.5 0
C484 RG1 N2979 0.12282 78.8 24.56 0.5 0
C485 RG1 N31 0.11975 81.8 23.95 0.5 0
C486 RG1 N3686 0.11127 85.0 22.25 0.5 0
C487 RG1 N3913 0.10638 92.6 21.28 0.5 0
C488 RG1 N868 0.07124 94.8 14.25 0.5 0
C489 RG1 N1542 0.10965 79.6 21.93 0.5 0
C490 RG1 N6 0.10016 84.7 20.03 0.5 0
C491 RG1 N2751 0.03157 90.4 6.31 0.5 0
C492 RG1 N1626 0.06145 89.1 12.29 0.5 0
C493 RG1 N4294 0.19658 79.5 39.32 0.5 0
C494 RG1 N2953 0.01956 84.6 5.00 0.5 0
C495 RG1 N3776 0.04978 89.5 9.96 0.5 0
C496 RG1 N1548 0.38675 81.4 77.35 0.5 0
C497 RG1 N3350 0.27798 86.0 55.60 0.5 0
C498 RG1 N3752 0.09600 88.8 19.20 0.5 0
C499 RG1 N1785 0.05090 89.7 10.18 0.5 0
C500 RG1 N2244 0.24538 81.5 49.08 0.5 0
C501 RG1 N196 0.06088 90.7 12.18 0.5 0
C502 RG1 N903 0.14430 87.7 28.86 0.5 0
C503 RG1 N2920 0.01474 88.0 5.00 0.5 0
C504 RG1 N356 0.04961 92.7 9.92 0.5 0
C505 RG1 N2912 0.12073 93.7 24.15 0.5 0
C506 RG1 N1947 0.03301 88.8 6.60 0.5 0
C507 RG1 N1128 0.16395 85.4 32.79 0.5 0
C508 RG1 N1763 0.01928 87.8 5.00 0.5 0
C509 RG1 N2635 0.35466 85.8 70.93 0.5 0
C510 RG1 N2132 0.03554 93.5 7.11 0.5 0
C511 RG1 N4314 0.00724 85.0 5.00 0.5 0
C512 RG1 N3916 0.42350 80.5 84.70 0.5 0
C513 RG1 N211 0.19137 89.1 38.27 0.5 0
C514 RG1 N922 0.09959 94.6 19.92 0.5 0
C515 RG1 N2825 0.09505 76.8 19.01 0.5 0
C516 RG1 N3581 0.08245 95.8 16.49 0.5 0
C517 RG1 N2280 0.08181 91.1 16.36 0.5 0
C518 RG1 N4100 0.28298 89.0 56.60 0.5 0
C519 RG1 N2873 0.05350 94.4 10.70 0.5 0
C520 RG1 N2997 0.22282 84.2 44.56 0.5 0
C521 RG1 N3755 0.01312 85.6 5.00 0.5 0
C522 RG1 N1865 0.21120 79.5 42.24 0.5 0
C523 RG1 N1752 0.15039 79.9 30.08 0.5 0
C524 RG1 N1557 0.09309 91.2 18.62 0.5 0
C525 RG1 N1587 0.05927 92.6 11.85 0.5 0
C526 RG1 N2585 0.10258 87.3 20.52 0.5 0
C527 RG1 N193 0.02418 88.1 5.00 0.5 0
C528 RG1 N3194 0.04693 93.1 9.39 0.5 0
C529 RG1 N3947 0.02075 87.4 5.00 0.5 0
C530 RG1 N3996 0.11157 93.2 22.31 0.5 0
C531 RG1 N4133 0.19733 82.7 39.47 0.5 0
C532 RG1 N1239 0.06916 94.3 13.83 0.5 0
C533 RG1 N16 0.02343 84.9 5.00 0.5 0
C534 RG1 N3850 0.05578 87.4 11.16 0.5 0
C535 RG1 N2278 0.12727 75.3 25.45 0.5 0
C536 RG1 N3442 0.02711 85.5 5.42 0.5 0
C537 RG1 N274 0.16503 88.5 33.01 0.5 0
C538 RG1 N684 0.29236 87.0 58.47 0.5 0
C539 RG1 N2956 0.07852 91.5 15.70 0.5 0
C540 RG1 N2733 0.05337 79.8 10.67 0.5 0
C541 RG1 N3382 0.05777 80.1 11.55 0.5 0
C542 RG1 N1358 0.21501 83.3 43.00 0.5 0
C543 RG1 N3831 0.05093 88.5 10.19 0.5 0
C544 RG1 N2806 0.21375 78.4 42.75 0.5 0
C545 RG1 N1158 0.04587 95.7 9.17 0.5 0
C546 RG1 N1681 0.07745 86.9 15.49 0.5 0
C547 RG1 N2021 0.06678 92.2 13.36 0.5 0
C548 RG1 N4284 0.05338 92.7 10.68 0.5 0
C549 RG1 N3040 0.08242 85.6 16.48 0.5 0
C550 RG1 N1690 0.25811 92.4 51.62 0.5 0
C551 RG1 N2235 0.08807 91.0 17.61 0.5 0
C552 RG1 N1015 0.04456 89.5 8.91 0.5 0
C553 RG1 N391 0.07046 92.7 14.09 0.5 0
C554 RG1 N771 0.32267 78.3 64.53 0.5 0
C555 RG1 N3161 0.04591 92.9 9.18 0.5 0
C556 RG1 N1805 0.03955 87.7 7.91 0.5 0
C557 RG1 N3323 0.06705 87.3 13.41 0.5 0
C558 RG1 N3084 0.01623 85.8 5.00 0.5 0
C559 RG1 N3672 0.17502 78.7 35.00 0.5 0
C560 RG1 N989 0.07127 90.2 14.25 0.5 0
C561 RG1 N2403 0.13851 80.6 27.70 0.5 0
C562 RG1 N4251 0.30100 79.5 60.20 0.5 0
C563 RG1 N1485 0.05497 90.4 10.99 0.5 0
C564 RG1 N1387 0.07143 91.4 14.29 0.5 0
C565 RG1 N2138 0.04377 86.5 8.75 0.5 0
C566 RG1 N3450 0.17182 85.3 34.36 0.5 0
C567 RG1 N1209 0.01446 87.4 5.00 0.5 0
C568 RG1 N1340 0.11340 92.3 22.68 0.5 0
C569 RG1 N3639 0.00718 80.1 5.00 0.5 0
C570 RG1 N1852 0.04387 90.6 8.77 0.5 0
C571 RG1 N3609 0.01877 81.4 5.00 0.5 0
C572 RG1 N2434 0.03255 87.7 6.51 0.5 0
C573 RG1 N1962 0.06551 90.5 13.10 0.5 0
C574 RG1 N3762 0.21252 85.3 42.50 0.5 0
C575 RG1 N352 0.08451 94.9 16.90 0.5 0
C576 RG1 N2082 0.07383 89.6 14.77 0.5 0
C577 RG1 N2763 0.14203 91.2 28.41 0.5 0
C578 RG1 N3369 0.00426 85.8 5.00 0.5 0
C579 RG1 N3564 0.01258 82.6 5.00 0.5 0
C580 RG1 N1353 0.03551 87.2 7.10 0.5 0
C581 RG1 N3080 0.04149 86.9 8.30 0.5 0
C582 RG1 N2870 0.28851 80.0 57.70 0.5 0
C583 RG1 N2320 0.17984 85.0 35.97 0.5 0
C584 RG1 N4000 0.10053 78.8 20.11 0.5 0
C585 RG1 N1496 0.09818 91.4 19.64 0.5 0
C586 RG1 N1778 0.13403 88.9 26.81 0.5 0
C587 RG1 N550 0.00721 83.2 5.00 0.5 0
C588 RG1 N3166 0.10570 95.9 21.14 0.5 0
C589 RG1 N3297 0.11662 85.0 23.32 0.5 0
C590 RG1 N4127 0.12757 95.6 25.51 0.5 0
C591 RG1 N4217 0.04355 87.9 8.71 0.5 0
C592 RG1 N567 0.06888 91.1 13.78 0.5 0
C593 RG1 N3796 0.04319 86.2 8.64 0.5 0
C594 RG1 N1272 0.00930 82.7 5.00 0.5 0
C595 RG1 N3278 0.05921 86.7 11.84 0.5 0
C596 RG1 N881 0.19158 83.5 38.32 0.5 0
C597 RG1 N3151 0.11311 83.2 22.62 0.5 0
C598 RG1 N1541 0.08154 94.5 16.31 0.5 0
C599 RG1 N651 0.02900 89.1 5.80 0.5 0
C600 RG1 N2577 0.01722 86.2 5.00 0.5 0
C601 RG1 N2755 0.06877 96.8 13.75 0.5 0
C602 RG1 N90 0.04754 84.9 9.51 0.5 0
C603 RG1 N914 0.05366 90.2 10.73 0.5 0
C604 RG1 N1188 0.00834 84.7 5.00 0.5 0
C605 RG1 N1400 0.03217 79.3 6.43 0.5 0
C606 RG1 N2388 0.06441 90.3 12.88 0.5 0
C607 RG1 N1060 0.03064 88.1 6.13 0.5 0
C608 RG1 N3127 0.01576 89.1 5.00 0.5 0
C609 RG1 N2079 0.31877 81.8 63.75 0.5 0
C610 RG1 N1210 0.08138 91.6 16.28 0.5 0
C611 RG1 N461 0.01827 82.0 5.00 0.5 0
C612 RG1 N494 0.10364 88.4 20.73 0.5 0
C613 RG1 N1819 0.06578 90.3 13.16 0.5 0
C614 RG1 N2209 0.04616 90.3 9.23 0.5 0
C615 RG1 N216 0.02349 94.8 5.00 0.5 0
C616 RG1 N4341 0.12976 85.7 25.95 0.5 0
C617 RG1 N2301 0.05755 92.3 11.51 0.5 0
C618 RG1 N2977 0.00385 85.6 5.00 0.5 0
C619 RG1 N2605 0.02782 89.8 5.56 0.5 0
C620 RG1 N751 0.19464 91.1 38.93 0.5 0
C621 RG1 N1298 0.08632 80.5 17.26 0.5 0
C622 RG1 N1989 0.09803 92.2 19.61 0.5 0
C623 RG1 N2381 0.05964 82.7 11.93 0.5 0
C624 RG1 N1590 0.13579 90.3 27.16 0.5 0
C625 RG1 N46 0.05204 93.8 10.41 0.5 0
C626 RG1 N1277 0.06021 89.0 12.04 0.5 0
C627 RG1 N357 0.00800 84.0 5.00 0.5 0
C628 RG1 N4161 0.03924 98.0 7.85 0.5 0
C629 RG1 N4160 0.12191 76.7 24.38 0.5 0
C630 RG1 N1342 0.03190 93.2 6.38 0.5 0
C631 RG1 N1936 0.10910 88.5 21.82 0.5 0
C632 RG1 N1135 0.00514 86.9 5.00 0.5 0
C633 RG1 N1917 0.04765 92.2 9.53 0.5 0
C634 RG1 N1344 0.04167 86.6 8.33 0.5 0
C635 RG1 N1561 0.12389 87.1 24.78 0.5 0
C636 RG1 N1686 0.04103 88.2 8.21 0.5 0
C637 RG1 N4097 0.01218 87.7 5.00 0.5 0
C638 RG1 N1545 0.05937 92.3 11.87 0.5 0
C639 RG1 N1549 0.10402 90.5 20.80 0.5 0
C640 RG1 N2674 0.06435 90.7 12.87 0.5 0
C641 RG1 N3966 0.03292 84.0 6.58 0.5 0
C642 RG1 N2198 0.01632 83.4 5.00 0.5 0
C643 RG1 N961 0.20860 76.5 41.72 0.5 0
C644 RG1 N4241 0.15428 91.0 30.86 0.5 0
C645 RG1 N3532 0.05133 97.4 10.27 0.5 0
C646 RG1 N1423 0.22846 92.1 45.69 0.5 0
C647 RG1 N2247 0.11081 90.1 22.16 0.5 0
C648 RG1 N3882 0.05906 93.2 11.81 0.5 0
C649 RG1 N3880 0.09603 90.1 19.21 0.5 0
C650 RG1 N344 0.04513 85.7 9.03 0.5 0
C651 RG1 N1107 0.05044 88.4 10.09 0.5 0
C652 RG1 N2115 0.05022 96.0 10.04 0.5 0
C653 RG1 N797 0.15042 81.3 30.08 0.5 0
C654 RG1 N67 0.01840 88.5 5.00 0.5 0
C655 RG1 N850 0.04463 92.5 8.93 0.5 0
C656 RG1 N3481 0.06322 93.8 12.64 0.5 0
C657 RG1 N679 0.06136 92.4 12.27 0.5 0
C658 RG1 N1976 0.09106 91.6 18.21 0.5 0
C659 RG1 N2322 0.10808 83.9 21.62 0.5 0
C660 RG1 N1596 0.23153 79.1 46.31 0.5 0
C661 RG1 N588 0.07256 80.6 14.51 0.5 0
C662 RG1 N4123 0.10139 93.1 20.28 0.5 0
C663 RG1 N1567 0.07352 90.4 14.70 0.5 0
C664 RG1 N3870 0.08770 82.9 17.54 0.5 0
C665 RG1 N2175 0.02709 89.2 5.42 0.5 0
C666 RG1 N2797 0.10195 89.0 20.39 0.5 0
C667 RG1 N2383 0.04592 93.6 9.18 0.5 0
C668 RG1 N316 0.02434 93.3 5.00 0.5 0
C669 RG1 N3896 0.05382 96.4 10.76 0.5 0
C670 RG1 N3477 0.11867 94.8 23.73 0.5 0
C671 RG1 N945 0.17770 86.9 35.54 0.5 0
C672 RG1 N2793 0.06698 86.5 13.40 0.5 0
C673 RG1 N3197 0.13243 95.9 26.49 0.5 0
C674 RG1 N1039 0.02897 82.5 5.79 0.5 0
C675 RG1 N1389 0.17056 88.6 34.11 0.5 0
C676 RG1 N1914 0.14320 92.6 28.64 0.5 0
C677 RG1 N3680 0.03535 94.3 7.07 0.5 0
C678 RG1 N2558 0.12217 92.6 24.43 0.5 0
C679 RG1 N590 0.04050 88.8 8.10 0.5 0
C680 RG1 N2424 0.13533 91.3 27.07 0.5 0
C681 RG1 N1833 0.19348 86.0 38.70 0.5 0
C682 RG1 N1436 0.06063 88.2 12.13 0.5 0
C683 RG1 N792 0.16945 91.9 33.89 0.5 0
C684 RG1 N2476 0.12713 94.0 25.43 0.5 0
C685 RG1 N642 0.04573 89.1 9.15 0.5 0
C686 RG1 N4143 0.05460 95.0 10.92 0.5 0
C687 RG1 N3826 0.10026 89.6 20.05 0.5 0
C688 RG1 N2881 0.18062 81.1 36.12 0.5 0
C689 RG1 N3687 0.07535 90.4 15.07 0.5 0
C690 RG1 N3807 0.05324 86.6 10.65 0.5 0
C691 RG1 N3416 0.04113 92.7 8.23 0.5 0
C692 RG1 N3173 0.10352 79.3 20.70 0.5 0
C693 RG1 N38 0.00942 84.9 5.00 0.5 0
C694 RG1 N4320 0.20219 92.9 40.44 0.5 0
C695 RG1 N1909 0.21054 96.3 42.11 0.5 0
C696 RG1 N2214 0.13881 90.3 27.76 0.5 0
C697 RG1 N2490 0.18641 91.6 37.28 0.5 0
C698 RG1 N3201 0.05053 87.3 10.11 0.5 0
C699 RG1 N2092 0.18424 82.9 36.85 0.5 0
C700 RG1 N1266 0.07900 94.9 15.80 0.5 0
C701 RG1 N4125 0.23376 77.8 46.75 0.5 0
C702 RG1 N4104 0.12940 75.9 25.88 0.5 0
C703 RG1 N2440 0.06854 92.5 13.71 0.5 0
C704 RG1 N3099 0.12628 76.5 25.26 0.5 0
C705 RG1 N2394 0.17717 86.5 35.43 0.5 0
C706 RG1 N2298 0.02687 89.5 5.37 0.5 0
C707 RG1 N212 0.05401 91.1 10.80 0.5 0
C708 RG1 N3571 0.19137 91.5 38.27 0.5 0
C709 RG1 N915 0.02701 85.5 5.40 0.5 0
C710 RG1 N475 0.12185 91.6 24.37 0.5 0
C711 RG1 N3868 0.02993 85.8 5.99 0.5 0
C712 RG1 N1465 0.03843 93.8 7.69 0.5 0
C713 RG1 N1079 0.10383 90.2 20.77 0.5 0
C714 RG1 N3783 0.04936 90.5 9.87 0.5 0
C715 RG1 N832 0.05058 89.9 10.12 0.5 0
C716 RG1 N3774 0.22115 93.7 44.23 0.5 0
C717 RG1 N170 0.09196 90.3 18.39 0.5 0
C718 RG1 N3626 0.11260 88.3 22.52 0.5 0
C719 RG1 N2212 0.05985 82.0 11.97 0.5 0
C720 RG1 N3025 0.09457 91.7 18.91 0.5 0
C721 RG1 N1155 0.07123 93.1 14.25 0.5 0
C722 RG1 N2871 0.07368 91.9 14.74 0.5 0
C723 RG1 N3624 0.07969 89.8 15.94 0.5 0
C724 RG1 N4323 0.13262 76.6 26.52 0.5 0
C725 RG1 N1222 0.07239 88.8 14.48 0.5 0
C726 RG1 N3697 0.04201 93.6 8.40 0.5 0
C727 RG1 N1702 0.22317 86.2 44.63 0.5 0
C728 RG1 N3572 0.10289 89.7 20.58 0.5 0
C729 RG1 N890 0.12873 90.5 25.75 0.5 0
C730 RG1 N4025 0.05011 87.7 10.02 0.5 0
C731 RG1 N362 0.01849 77.1 5.00 0.5 0
C732 RG1 N3453 0.04991 92.4 9.98 0.5 0
C733 RG1 N1699 0.12814 94.2 25.63 0.5 0
C734 RG1 N2522 0.03255 92.6 6.51 0.5 0
C735 RG1 N3425 0.15877 90.4 31.75 0.5 0
C736 RG1 N3321 0.06881 90.8 13.76 0.5 0
C737 RG1 N1749 0.06489 90.8 12.98 0.5 0
C738 RG1 N660 0.12486 84.8 24.97 0.5 0
C739 RG1 N636 0.16152 94.1 32.30 0.5 0
C740 RG1 N3230 0.03522 88.0 7.04 0.5 0
C741 RG1 N415 0.16773 88.0 33.55 0.5 0
C742 RG1 N1478 0.01896 86.9 5.00 0.5 0
C743 RG1 N1475 0.10029 92.0 20.06 0.5 0
C744 RG1 N96 0.04062 94.2 8.12 0.5 0
C745 RG1 N3035 0.06182 82.6 12.36 0.5 0
C746 RG1 N2557 0.08947 91.7 17.89 0.5 0
C747 RG1 N1036 0.02280 88.0 5.00 0.5 0
C748 RG1 N2089 0.15579 75.8 31.16 0.5 0
C749 RG1 N3399 0.07037 93.9 14.07 0.5 0
C750 RG1 N563 0.00561 79.5 5.00 0.5 0
C751 RG1 N2371 0.03964 87.9 7.93 0.5 0
C752 RG1 N260 0.11670 84.6 23.34 0.5 0
C753 RG1 N4149 0.12275 86.7 24.55 0.5 0
C754 RG1 N1038 0.11597 96.2 23.19 0.5 0
C755 RG1 N3205 0.02401 82.7 5.00 0.5 0
C756 RG1 N119 0.10771 92.3 21.54 0.5 0
C757 RG1 N1174 0.05196 91.8 10.39 0.5 0
C758 RG1 N3810 0.02730 87.3 5.46 0.5 0
C759 RG1 N3798 0.27812 75.0 55.62 0.5 0
C760 RG1 N2066 0.20578 89.0 41.16 0.5 0
C761 RG1 N114 0.07428 89.5 14.86 0.5 0
C762 RG1 N1035 0.03226 90.7 6.45 0.5 0
C763 RG1 N3646 0.06654 97.9 13.31 0.5 0
C764 RG1 N752 0.22795 83.8 45.59 0.5 0
C765 RG1 N3249 0.18782 91.8 37.56 0.5 0
C766 RG1 N3470 0.03270 89.3 6.54 0.5 0
C767 RG1 N1822 0.14944 77.9 29.89 0.5 0
C768 RG1 N60 0.13787 91.8 27.57 0.5 0
C769 RG1 N886 0.05033 92.8 10.07 0.5 0
C770 RG1 N4184 0.13492 94.3 26.98 0.5 0
C771 RG1 N4080 0.07561 99.3 15.12 0.5 0
C772 RG1 N2727 0.01866 86.4 5.00 0.5 0
C773 RG1 N3082 0.00298 83.7 5.00 0.5 0
C774 RG1 N2756 0.09805 95.4 19.61 0.5 0
C775 RG1 N1507 0.24477 83.5 48.95 0.5 0
C776 RG1 N4293 0.01510 91.0 5.00 0.5 0
C777 RG1 N1760 0.10010 95.1 20.02 0.5 0
C778 RG1 N2505 0.08454 92.3 16.91 0.5 0
C779 RG1 N2218 0.04712 88.3 9.42 0.5 0
C780 RG1 N3566 0.06780 93.0 13.56 0.5 0
C781 RG1 N545 0.00218 85.0 5.00 0.5 0
C782 RG1 N2057 0.01848 84.3 5.00 0.5 0
C783 RG1 N2900 0.01674 84.8 5.00 0.5 0
C784 RG1 N976 0.07680 96.6 15.36 0.5 0
C785 RG1 N4322 0.10682 93.3 21.36 0.5 0
C786 RG1 N3813 0.00694 91.4 5.00 0.5 0
C787 RG1 N4317 0.02986 90.6 5.97 0.5 0
C788 RG1 N1623 0.02957 90.2 5.91 0.5 0
C789 RG1 N202 0.11636 90.2 23.27 0.5 0
C790 RG1 N2433 0.12256 81.6 24.51 0.5 0
C791 RG1 N3499 0.01999 83.2 5.00 0.5 0
C792 RG1 N1443 0.01829 98.1 5.00 0.5 0
C793 RG1 N3474 0.00633 83.2 5.00 0.5 0
C794 RG1 N3412 0.00897 85.0 5.00 0.5 0
C795 RG1 N4172 0.32462 75.9 64.92 0.5 0
C796 RG1 N566 0.02194 90.6 5.00 0.5 0
C797 RG1 N691 0.06085 83.0 12.17 0.5 0
C798 RG1 N2414 0.00841 85.0 5.00 0.5 0
C799 RG1 N4229 0.06476 91.8 12.95 0.5 0
C800 RG1 N2398 0.07160 94.0 14.32 0.5 0
C801 RG1 N4004 0.08391 86.2 16.78 0.5 0
C802 RG1 N3863 0.23399 86.2 46.80 0.5 0
C803 RG1 N4231 0.11828 89.4 23.66 0.5 0
C804 RG1 N1677 0.10036 93.9 20.07 0.5 0
C805 RG1 N2356 0.09367 94.2 18.73 0.5 0
C806 RG1 N3959 0.07265 90.9 14.53 0.5 0
C807 RG1 N1634 0.04989 87.7 9.98 0.5 0
C808 RG1 N3749 0.01946 92.3 5.00 0.5 0
C809 RG1 N1146 0.01833 89.0 5.00 0.5 0
C810 RG1 N3745 0.02036 83.3 5.00 0.5 0
C811 RG1 N1241 0.03044 84.7 6.09 0.5 0
C812 RG1 N235 0.04127 95.6 8.25 0.5 0
C813 RG1 N2501 0.05269 91.5 10.54 0.5 0
C814 RG1 N2760 0.01642 88.0 5.00 0.5 0
C815 RG1 N1840 0.09049 93.6 18.10 0.5 0
C816 RG1 N924 0.01231 85.0 5.00 0.5 0
C817 RG1 N411 0.01119 85.0 5.00 0.5 0
C818 RG1 N377 0.00838 85.0 5.00 0.5 0
C819 RG1 N1663 0.09055 82.6 18.11 0.5 0
C820 RG1 N2951 0.07023 96.2 14.05 0.5 0
C821 RG1 N1900 0.01896 91.1 5.00 0.5 0
C822 RG1 N3642 0.03085 82.2 6.17 0.5 0
C823 RG1 N64 0.03475 86.8 6.95 0.5 0
C824 RG1 N3152 0.01697 73.4 5.00 0.5 0
C825 RG1 N1089 0.01258 90.9 5.00 0.5 0
C826 RG1 N1463 0.06946 90.7 13.89 0.5 0
C827 RG1 N2087 0.02534 87.8 5.07 0.5 0
C828 RG1 N2273 0.00998 90.3 5.00 0.5 0
C829 RG1 N3939 0.04042 95.0 8.08 0.5 0
C830 RG1 N3981 0.02700 85.9 5.40 0.5 0
C831 RG1 N2171 0.08833 82.8 17.67 0.5 0
C832 RG1 N3413 0.18550 91.4 37.10 0.5 0
C833 RG1 N3841 0.05526 93.8 11.05 0.5 0
C834 RG1 N673 0.06843 84.5 13.69 0.5 0
C835 RG1 N2619 0.05844 81.0 11.69 0.5 0
C836 RG1 N3879 0.06130 92.1 12.26 0.5 0
C837 RG1 N1809 0.00518 85.0 5.00 0.5 0
C838 RG1 N324 0.02153 81.4 5.00 0.5 0
C839 RG1 N1913 0.03503 97.0 7.01 0.5 0
C840 RG1 N437 0.05738 93.0 11.48 0.5 0
C841 RG1 N1371 0.00505 85.0 5.00 0.5 0
C842 RG1 N1319 0.07684 85.1 15.37 0.5 0
C843 RG1 N1879 0.15480 84.1 30.96 0.5 0
C844 RG1 N3978 0.03628 89.8 7.26 0.5 0
C845 RG1 N2265 0.00847 85.6 5.00 0.5 0
C846 RG1 N1629 0.05524 90.0 11.05 0.5 0
C847 RG1 N4226 0.11308 93.8 22.62 0.5 0
C848 RG1 N4103 0.02399 86.2 5.00 0.5 0
C849 RG1 N2304 0.00417 85.0 5.00 0.5 0
C850 RG1 N3031 0.03960 91.3 7.92 0.5 0
C851 RG1 N426 0.14133 85.3 28.27 0.5 0
C852 RG1 N3940 0.01709 83.8 5.00 0.5 0
C853 RG1 N644 0.01727 84.7 5.00 0.5 0
C854 RG1 N263 0.09834 93.2 19.67 0.5 0
C855 RG1 N3891 0.03169 93.5 6.34 0.5 0
C856 RG1 N4274 0.10141 93.5 20.28 0.5 0
C857 RG1 N2531 0.00780 85.0 5.00 0.5 0
C858 RG1 N1737 0.04552 93.2 9.10 0.5 0
C859 RG1 N737 0.08827 96.7 17.65 0.5 0
C860 RG1 N3180 0.03717 90.9 7.43 0.5 0
C861 RG1 N4240 0.09007 92.0 18.01 0.5 0
C862 RG1 N4110 0.16217 93.5 32.43 0.5 0
C863 RG1 N3985 0.04894 92.6 9.79 0.5 0
C864 RG1 N4007 0.06465 92.7 12.93 0.5 0
C865 RG1 N1046 0.39189 72.4 78.38 0.5 0
C866 RG1 N3666 0.05450 88.1 10.90 0.5 0
C867 RG1 N3309 0.04859 94.1 9.72 0.5 0
C868 RG1 N1170 0.12138 94.8 24.28 0.5 0
C869 RG1 N4137 0.01939 85.3 5.00 0.5 0
C870 RG1 N608 0.05645 91.1 11.29 0.5 0
C871 RG1 N3657 0.04016 91.8 8.03 0.5 0
C872 RG1 N1860 0.01965 83.8 5.00 0.5 0
C873 RG1 N2571 0.05920 96.1 11.84 0.5 0
C874 RG1 N3496 0.01405 85.0 5.00 0.5 0
C875 RG1 N1861 0.00547 85.0 5.00 0.5 0
C876 RG1 N4067 0.01840 89.3 5.00 0.5 0
C877 RG1 N3941 0.08306 87.5 16.61 0.5 0
C878 RG1 N3902 0.08741 84.1 17.48 0.5 0
C879 RG1 N2114 0.06941 90.2 13.88 0.5 0
C880 RG1 N2221 0.01525 85.1 5.00 0.5 0
C881 RG1 N432 0.02935 87.2 5.87 0.5 0
C882 RG1 N586 0.03069 90.8 6.14 0.5 0
C883 RG1 N1072 0.04145 96.5 8.29 0.5 0
C884 RG1 N4280 0.00235 85.0 5.00 0.5 0
C885 RG1 N1296 0.05092 82.1 10.18 0.5 0
C886 RG1 N2029 0.05701 94.1 11.40 0.5 0
C887 RG1 N1411 0.04700 97.0 9.40 0.5 0
C888 RG1 N2109 0.04009 85.0 8.02 0.5 0
C889 RG1 N2387 0.14999 80.0 30.00 0.5 0
C890 RG1 N1584 0.02799 90.0 5.60 0.5 0
C891 RG1 N975 0.04412 87.9 8.82 0.5 0
C892 RG1 N4076 0.00726 85.0 5.00 0.5 0
C893 RG1 N4148 0.04312 92.7 8.62 0.5 0
C894 RG1 N1246 0.16795 94.3 33.59 0.5 0
C895 RG1 N2450 0.10296 96.1 20.59 0.5 0
C896 RG1 N2234 0.07008 96.5 14.02 0.5 0
C897 RG1 N1614 0.16129 94.8 32.26 0.5 0
C898 RG1 N410 0.01246 79.6 5.00 0.5 0
C899 RG1 N3476 0.08103 76.1 16.21 0.5 0
C900 RG1 N2750 0.01571 89.0 5.00 0.5 0
C901 RG1 N1907 0.02572 87.9 5.14 0.5 0
C902 RG1 N4019 0.05879 86.5 11.76 0.5 0
C903 RG1 N188 0.06883 80.5 13.77 0.5 0
C904 RG1 N4204 0.04755 80.4 9.51 0.5 0
C905 RG1 N1599 0.03828 93.8 7.66 0.5 0
C906 RG1 N2732 0.24543 85.0 49.09 0.5 0
C907 RG1 N3065 0.15690 90.0 31.38 0.5 0
C908 RG1 N2772 0.03547 88.6 7.09 0.5 0
C909 RG1 N626 0.19699 94.1 39.40 0.5 0
C910 RG1 N3171 0.01911 85.1 5.00 0.5 0
C911 RG1 N537 0.13442 82.8 26.88 0.5 0
C912 RG1 N1318 0.03923 87.5 7.85 0.5 0
C913 RG1 N39 0.08998 75.2 18.00 0.5 0
C914 RG1 N1364 0.12150 92.2 24.30 0.5 0
C915 RG1 N3311 0.13455 80.8 26.91 0.5 0
C916 RG1 N1769 0.06880 80.0 13.76 0.5 0
C917 RG1 N1180 0.08018 87.9 16.04 0.5 0
C918 RG1 N2866 0.00969 86.4 5.00 0.5 0
C919 RG1 N4052 0.03146 95.6 6.29 0.5 0
C920 RG1 N698 0.03167 89.2 6.33 0.5 0
C921 RG1 N360 0.00495 85.0 5.00 0.5 0
C922 RG1 N4288 0.05420 87.5 10.84 0.5 0
C923 RG1 N2843 0.02331 87.9 5.00 0.5 0
C924 RG1 N2204 0.03559 94.3 7.12 0.5 0
C925 RG1 N1420 0.10368 91.5 20.74 0.5 0
C926 RG1 N3208 0.05192 83.0 10.38 0.5 0
C927 RG1 N677 0.03464 93.4 6.93 0.5 0
C928 RG1 N3789 0.08738 84.1 17.48 0.5 0
C929 RG1 N1687 0.05756 90.2 11.51 0.5 0
C930 RG1 N613 0.05867 99.3 11.73 0.5 0
C931 RG1 N3994 0.01626 89.1 5.00 0.5 0
C932 RG1 N2281 0.01752 87.3 5.00 0.5 0
C933 RG1 N2595 0.07452 94.6 14.90 0.5 0
C934 RG1 N2405 0.02673 81.7 5.35 0.5 0
C935 RG1 N2238 0.17644 89.5 35.29 0.5 0
C936 RG1 N633 0.07158 97.9 14.32 0.5 0
C937 RG1 N781 0.20831 74.4 41.66 0.5 0
C938 RG1 N3668 0.16417 82.3 32.83 0.5 0
C939 RG1 N4112 0.05036 90.8 10.07 0.5 0
C940 RG1 N4235 0.01084 94.4 5.00 0.5 0
C941 RG1 N2584 0.01509 85.0 5.00 0.5 0
C942 RG1 N3514 0.04711 87.7 9.42 0.5 0
C943 RG1 N1104 0.06827 94.2 13.65 0.5 0
C944 RG1 N1738 0.08826 86.8 17.65 0.5 0
C945 RG1 N1133 0.11278 77.0 22.56 0.5 0
C946 RG1 N657 0.04873 88.4 9.75 0.5 0
C947 RG1 N1952 0.08814 94.7 17.63 0.5 0
C948 RG1 N783 0.08043 84.0 16.09 0.5 0
C949 RG1 N3696 0.04903 95.6 9.81 0.5 0
C950 RG1 N1472 0.06491 90.9 12.98 0.5 0
C951 RG1 N314 0.02173 86.7 5.00 0.5 0
C952 RG1 N1825 0.03291 85.8 6.58 0.5 0
C953 RG1 N1004 0.04763 89.4 9.53 0.5 0
C954 RG1 N3063 0.07414 95.3 14.83 0.5 0
C955 RG1 N2448 0.02591 88.2 5.18 0.5 0
C956 RG1 N1460 0.07609 89.9 15.22 0.5 0
C957 RG1 N615 0.04109 93.8 8.22 0.5 0
C958 RG1 N3235 0.10425 75.2 20.85 0.5 0
C959 RG1 N2107 0.15034 77.7 30.07 0.5 0
C960 RG1 N2441 0.05369 88.8 10.74 0.5 0
C961 RG1 N284 0.01156 87.7 5.00 0.5 0
C962 RG1 N3553 0.06366 90.6 12.73 0.5 0
C963 RG1 N3394 0.11729 93.6 23.46 0.5 0
C964 RG1 N516 0.01241 83.3 5.00 0.5 0
C965 RG1 N2373 0.07730 86.3 15.46 0.5 0
C966 RG1 N1320 0.17697 88.8 35.39 0.5 0
C967 RG1 N712 0.03104 87.6 6.21 0.5 0
C968 RG1 N2566 0.12423 78.0 24.85 0.5 0
C969 RG1 N1673 0.06750 90.0 13.50 0.5 0
C970 RG1 N2570 0.08281 80.0 16.56 0.5 0
C971 RG1 N2636 0.01698 85.3 5.00 0.5 0
C972 RG1 N1026 0.06476 84.2 12.95 0.5 0
C973 RG1 N3628 0.06164 94.9 12.33 0.5 0
C974 RG1 N3245 0.10511 93.7 21.02 0.5 0
C975 RG1 N1520 0.17200 80.0 34.40 0.5 0
C976 RG1 N3664 0.04840 99.4 9.68 0.5 0
C977 RG1 N2052 0.06715 95.3 13.43 0.5 0
C978 RG1 N4095 0.26419 80.5 52.84 0.5 0
C979 RG1 N1480 0.10586 92.1 21.17 0.5 0
C980 RG1 N2574 0.06205 89.9 12.41 0.5 0
C981 RG1 N24 0.12043 76.2 24.09 0.5 0
C982 RG1 N846 0.05503 80.3 11.01 0.5 0
C983 RG1 N1454 0.04085 94.0 8.17 0.5 0
C984 RG1 N1552 0.04705 95.6 9.41 0.5 0
C985 RG1 N4270 0.08097 77.8 16.19 0.5 0
C986 RG1 N169 0.00697 85.0 5.00 0.5 0
C987 RG1 N1159 0.07124 90.8 14.25 0.5 0
C988 RG1 N2565 0.06238 97.4 12.48 0.5 0
C989 RG1 N2261 0.10434 69.9 20.87 0.5 0
C990 RG1 N1588 0.03681 88.9 7.36 0.5 0
C991 RG1 N2349 0.06694 91.4 13.39 0.5 0
C992 RG1 N3239 0.03576 93.1 7.15 0.5 0
C993 RG1 N1624 0.08490 85.4 16.98 0.5 0
C994 RG1 N3428 0.09281 97.3 18.56 0.5 0
C995 RG1 N514 0.11292 82.6 22.58 0.5 0
C996 RG1 N1531 0.05504 97.0 11.01 0.5 0
C997 RG1 N3501 0.06302 88.3 12.60 0.5 0
C998 RG1 N1983 0.14550 92.8 29.10 0.5 0
C999 RG1 N4298 0.16133 73.4 32.27 0.5 0
C1000 RG1 N2880 0.06530 78.8 13.06 0.5 0
C1001 RG1 N1848 0.06960 97.4 13.92 0.5 0
C1002 RG1 N2989 0.21073 79.3 42.15 0.5 0
C1003 RG1 N3330 0.03015 91.6 6.03 0.5 0
C1004 RG1 N3303 0.03450 92.0 6.90 0.5 0
C1005 RG1 N1869 0.01815 86.7 5.00 0.5 0
C1006 RG1 N605 0.02482 92.7 5.00 0.5 0
C1007 RG1 N2023 0.11360 81.4 22.72 0.5 0
C1008 RG1 N1997 0.20247 81.5 40.49 0.5 0
C1009 RG1 N4365 0.03970 96.0 7.94 0.5 0
C1010 RG1 N3074 0.05522 92.3 11.04 0.5 0
C1011 RG1 N272 0.01806 84.3 5.00 0.5 0
C1012 RG1 N4188 0.01868 85.0 5.00 0.5 0
C1013 RG1 N257 0.14087 76.4 28.17 0.5 0
C1014 RG1 N892 0.05430 74.9 10.86 0.5 0
C1015 RG1 N2640 0.07656 97.2 15.31 0.5 0
C1016 RG1 N2205 0.03026 94.2 6.05 0.5 0
C1017 RG1 N1136 0.03498 83.0 7.00 0.5 0
C1018 RG1 N2354 0.06591 93.7 13.18 0.5 0
C1019 RG1 N1264 0.02860 88.5 5.72 0.5 0
C1020 RG1 N2050 0.10992 86.4 21.98 0.5 0
C1021 RG1 N1577 0.32611 82.8 65.22 0.5 0
C1022 RG1 N3198 0.02118 48.0 5.00 0.5 0
C1023 RG1 N901 0.04108 52.7 8.22 0.5 0
C1024 RG1 N4118 0.02066 87.7 5.00 0.5 0
C1025 RG1 N2100 0.06028 89.2 12.06 0.5 0
C1026 RG1 N2017 0.00839 85.0 5.00 0.5 0
C1027 RG1 N1322 0.05441 75.6 10.88 0.5 0
C1028 RG1 N1518 0.03752 87.6 7.50 0.5 0
C1029 RG1 N2944 0.41143 74.2 82.29 0.5 0
C1030 RG1 N1643 0.08696 94.1 17.39 0.5 0
C1031 RG1 N1196 0.05222 94.5 10.44 0.5 0
C1032 RG1 N3632 0.02814 80.3 5.63 0.5 0
C1033 RG1 N831 0.04299 95.6 8.60 0.5 0
C1034 RG1 N3343 0.01924 91.9 5.00 0.5 0
C1035 RG1 N2965 0.11888 88.0 23.78 0.5 0
C1036 RG1 N3517 0.03904 85.6 7.81 0.5 0
C1037 RG1 N2500 0.01779 84.5 5.00 0.5 0
C1038 RG1 N727 0.02375 84.8 5.00 0.5 0
C1039 RG1 N1470 0.07451 93.2 14.90 0.5 0
C1040 RG1 N4085 0.03616 95.9 7.23 0.5 0
C1041 RG1 N1328 0.09612 91.2 19.22 0.5 0
C1042 RG1 N4254 0.07744 54.8 15.49 0.5 0
C1043 RG1 N3562 0.07437 85.2 14.87 0.5 0
C1044 RG1 N1583 0.01239 90.8 5.00 0.5 0
C1045 RG1 N3402 0.04774 93.8 9.55 0.5 0
C1046 RG1 N2830 0.08293 97.9 16.59 0.5 0
C1047 RG1 N479 0.02672 84.0 5.34 0.5 0
C1048 RG1 N3262 0.09557 74.2 19.11 0.5 0
C1049 RG1 N3386 0.00500 85.0 5.00 0.5 0
C1050 RG1 N3379 0.03326 86.2 6.65 0.5 0
C1051 RG1 N3843 0.00206 85.0 5.00 0.5 0
C1052 RG1 N1332 0.08035 89.1 16.07 0.5 0
C1053 RG1 N2367 0.04638 86.8 9.28 0.5 0
C1054 RG1 N1269 0.23224 88.0 46.45 0.5 0
C1055 RG1 N3093 0.02659 94.1 5.32 0.5 0
C1056 RG1 N2612 0.08781 94.4 17.56 0.5 0
C1057 RG1 N1435 0.04653 93.0 9.31 0.5 0
C1058 RG1 N577 0.04580 78.5 9.16 0.5 0
C1059 RG1 N1883 0.16678 86.9 33.36 0.5 0
C1060 RG1 N1390 0.03171 85.3 6.34 0.5 0
C1061 RG1 N236 0.01121 86.8 5.00 0.5 0
C1062 RG1 N1031 0.05957 90.2 11.91 0.5 0
C1063 RG1 N1483 0.13815 96.7 27.63 0.5 0
C1064 RG1 N2311 0.06845 97.6 13.69 0.5 0
C1065 RG1 N1918 0.07800 82.3 15.60 0.5 0
C1066 RG1 N2897 0.09093 88.1 18.19 0.5 0
C1067 RG1 N1066 0.10309 96.0 20.62 0.5 0
C1068 RG1 N108 0.10192 87.4 20.38 0.5 0
C1069 RG1 N1085 0.15327 81.6 30.65 0.5 0
C1070 RG1 N4332 0.04429 97.5 8.86 0.5 0
C1071 RG1 N4051 0.08290 97.5 16.58 0.5 0
C1072 RG1 N3241 0.04089 88.8 8.18 0.5 0
C1073 RG1 N3009 0.03314 94.5 6.63 0.5 0
C1074 RG1 N4200 0.05664 89.4 11.33 0.5 0
C1075 RG1 N2067 0.02351 84.1 5.00 0.5 0
C1076 RG1 N469 0.02985 30.6 5.97 0.5 0
C1077 RG1 N490 0.10860 91.9 21.72 0.5 0
C1078 RG1 N2972 0.07520 90.7 15.04 0.5 0
C1079 RG1 N527 0.06990 94.5 13.98 0.5 0
C1080 RG1 N2 0.10516 71.6 21.03 0.5 0
C1081 RG1 N3599 0.12170 96.2 24.34 0.5 0
C1082 RG1 N2101 0.14521 92.6 29.04 0.5 0
C1083 RG1 N653 0.02679 86.1 5.36 0.5 0
C1084 RG1 N3128 0.08617 95.2 17.23 0.5 0
C1085 RG1 N3336 0.06189 86.3 12.38 0.5 0
C1086 RG1 N127 0.08817 82.8 17.63 0.5 0
C1087 RG1 N4168 0.03037 56.0 6.07 0.5 0
C1088 RG1 N3905 0.06755 96.9 13.51 0.5 0
C1089 RG1 N3701 0.06844 91.7 13.69 0.5 0
C1090 RG1 N3243 0.06719 94.9 13.44 0.5 0
C1091 RG1 N3408 0.08127 93.4 16.25 0.5 0
C1092 RG1 N1602 0.03524 86.0 7.05 0.5 0
C1093 RG1 N3296 0.01304 88.3 5.00 0.5 0
C1094 RG1 N2602 0.09062 75.6 18.12 0.5 0
C1095 RG1 N281 0.11768 83.1 23.54 0.5 0
C1096 RG1 N2838 0.02586 92.9 5.17 0.5 0
C1097 RG1 N51 0.05096 85.9 10.19 0.5 0
C1098 RG1 N435 0.13673 80.8 27.35 0.5 0
C1099 RG1 N4029 0.01078 85.3 5.00 0.5 0
C1100 RG1 N2227 0.11757 87.5 23.51 0.5 0
C1101 RG1 N1455 0.03455 93.5 6.91 0.5 0
C1102 RG1 N242 0.08347 84.5 16.69 0.5 0
C1103 RG1 N973 0.06322 93.7 12.64 0.5 0
C1104 RG1 N4216 0.07321 94.4 14.64 0.5 0
C1105 RG1 N3656 0.05933 95.3 11.87 0.5 0
C1106 RG1 N143 0.04950 95.1 9.90 0.5 0
C1107 RG1 N3569 0.17259 97.1 34.52 0.5 0
C1108 RG1 N3570 0.01170 85.0 5.00 0.5 0
C1109 RG1 N4262 0.01907 82.6 5.00 0.5 0
C1110 RG1 N512 0.05948 90.6 11.90 0.5 0
C1111 RG1 N2824 0.04737 90.1 9.47 0.5 0
C1112 RG1 N395 0.13200 97.4 26.40 0.5 0
C1113 RG1 N687 0.08671 92.5 17.34 0.5 0
C1114 RG1 N3695 0.03856 79.5 7.71 0.5 0
C1115 RG1 N2136 0.13045 83.3 26.09 0.5 0
C1116 RG1 N731 0.20325 81.7 40.65 0.5 0
C1117 RG1 N2934 0.17260 98.2 34.52 0.5 0
C1118 RG1 N3434 0.11294 98.2 22.59 0.5 0
C1119 RG1 N2420 0.00614 85.0 5.00 0.5 0
C1120 RG1 N187 0.06821 98.0 13.64 0.5 0
C1121 RG1 N2702 0.13632 93.0 27.26 0.5 0
C1122 RG1 N1329 0.06670 93.6 13.34 0.5 0
C1123 RG1 N1498 0.02309 58.1 5.00 0.5 0
C1124 RG1 N1846 0.18743 78.0 37.49 0.5 0
C1125 RG1 N3892 0.05617 97.1 11.23 0.5 0
C1126 RG1 N1862 0.06283 97.5 12.57 0.5 0
C1127 RG1 N2124 0.02619 85.8 5.24 0.5 0
C1128 RG1 N3914 0.07504 97.1 15.01 0.5 0
C1129 RG1 N1259 0.10733 87.2 21.47 0.5 0
C1130 RG1 N2232 0.07357 97.7 14.71 0.5 0
C1131 RG1 N2841 0.02043 90.6 5.00 0.5 0
C1132 RG1 N1994 0.06578 96.0 13.16 0.5 0
C1133 RG1 N2761 0.13564 95.7 27.13 0.5 0
C1134 RG1 N4147 0.02265 72.2 5.00 0.5 0
C1135 RG1 N2882 0.20613 81.1 41.23 0.5 0
C1136 RG1 N1912 0.13656 86.9 27.31 0.5 0
C1137 RG1 N3544 0.19213 90.0 38.43 0.5 0
C1138 RG1 N111 0.05654 72.9 11.31 0.5 0
C1139 RG1 N480 0.02549 70.1 5.10 0.5 0
C1140 RG1 N509 0.05599 96.9 11.20 0.5 0
C1141 RG1 N2514 0.04715 93.3 9.43 0.5 0
C1142 RG1 N1537 0.07501 97.0 15.00 0.5 0
C1143 RG1 N1750 0.08773 96.9 17.55 0.5 0
C1144 RG1 N2272 0.03938 96.6 7.88 0.5 0
C1145 RG1 N2113 0.12978 97.5 25.96 0.5 0
C1146 RG1 N3591 0.05301 86.6 10.60 0.5 0
C1147 RG1 N3886 0.08261 91.5 16.52 0.5 0
C1148 RG1 N1144 0.10025 92.1 20.05 0.5 0
C1149 RG1 N318 0.02129 90.9 5.00 0.5 0
C1150 RG1 N2462 0.01496 86.5 5.00 0.5 0
C1151 RG1 N462 0.09587 97.4 19.17 0.5 0
C1152 RG1 N2222 0.04549 95.3 9.10 0.5 0
C1153 RG1 N2461 0.05844 88.9 11.69 0.5 0
C1154 RG1 N3938 0.02485 73.7 5.00 0.5 0
C1155 RG1 N3488 0.13744 95.9 27.49 0.5 0
C1156 RG1 N163 0.02885 92.2 5.77 0.5 0
C1157 RG1 N175 0.11336 77.9 22.67 0.5 0
C1158 RG1 N3834 0.09690 97.7 19.38 0.5 0
C1159 RG1 N557 0.11766 77.6 23.53 0.5 0
C1160 RG1 N3538 0.04467 98.4 8.93 0.5 0
C1161 RG1 N1088 0.14297 94.1 28.59 0.5 0
C1162 RG1 N579 0.07048 95.1 14.10 0.5 0
C1163 RG1 N2802 0.05517 81.7 11.03 0.5 0
C1164 RG1 N788 0.11998 87.7 24.00 0.5 0
C1165 RG1 N3308 0.06131 98.0 12.26 0.5 0
C1166 RG1 N1669 0.08331 97.4 16.66 0.5 0
C1167 RG1 N3454 0.19969 93.0 39.94 0.5 0
C1168 RG1 N1586 0.14289 91.1 28.58 0.5 0
C1169 RG1 N3097 0.07817 91.1 15.63 0.5 0
C1170 RG1 N3333 0.02529 97.7 5.06 0.5 0
C1171 RG1 N3405 0.05278 95.6 10.56 0.5 0
C1172 RG1 N2673 0.08431 97.3 16.86 0.5 0
C1173 RG1 N641 0.02319 85.0 5.00 0.5 0
C1174 RG1 N1616 0.05298 94.7 10.60 0.5 0
C1175 RG1 N1506 0.06720 91.9 13.44 0.5 0
C1176 RG1 N1845 0.03446 91.1 6.89 0.5 0
C1177 RG1 N3593 0.01991 88.5 5.00 0.5 0
C1178 RG1 N4250 0.12393 81.1 24.79 0.5 0
C1179 RG1 N1747 0.05263 91.5 10.53 0.5 0
C1180 RG1 N1732 0.05027 98.5 10.05 0.5 0
C1181 RG1 N1160 0.03598 90.8 7.20 0.5 0
C1182 RG1 N1482 0.09393 89.2 18.79 0.5 0
C1183 RG1 N3287 0.12613 97.5 25.23 0.5 0
C1184 RG1 N3596 0.03266 96.9 6.53 0.5 0
C1185 RG1 N535 0.06463 95.5 12.93 0.5 0
C1186 RG1 N910 0.05604 92.7 11.21 0.5 0
C1187 RG1 N2872 0.05086 92.3 10.17 0.5 0
C1188 RG1 N2200 0.01325 94.2 5.00 0.5 0
C1189 RG1 N572 0.06826 98.4 13.65 0.5 0
C1190 RG1 N2999 0.02100 96.9 5.00 0.5 0
C1191 RG1 N3759 0.09345 82.0 18.69 0.5 0
C1192 RG1 N1863 0.04545 93.5 9.09 0.5 0
C1193 RG1 N1911 0.07086 96.0 14.17 0.5 0
C1194 RG1 N2842 0.01473 88.7 5.00 0.5 0
C1195 RG1 N1821 0.11449 97.4 22.90 0.5 0
C1196 RG1 N4214 0.05086 96.0 10.17 0.5 0
C1197 RG1 N3933 0.09149 98.7 18.30 0.5 0
C1198 RG1 N3106 0.04265 95.6 8.53 0.5 0
C1199 RG1 N3675 0.03417 96.1 6.83 0.5 0
C1200 RG1 N101 0.10764 95.6 21.53 0.5 0
C1201 RG1 N345 0.01370 96.5 5.00 0.5 0
C1202 RG1 N2382 0.08411 98.8 16.82 0.5 0
C1203 RG1 N680 0.03772 91.1 7.54 0.5 0
C1204 RG1 N2907 0.02872 91.7 5.74 0.5 0
C1205 RG1 N2306 0.05308 97.0 10.62 0.5 0
C1206 RG1 N969 0.17252 94.1 34.50 0.5 0
C1207 RG1 N4202 0.06760 96.8 13.52 0.5 0
C1208 RG1 N3012 0.05214 93.9 10.43 0.5 0
C1209 RG1 N99 0.02173 93.4 5.00 0.5 0
C1210 RG1 N1143 0.04654 98.8 9.31 0.5 0
C1211 RG1 N2855 0.02623 94.9 5.25 0.5 0
C1212 RG1 N2718 0.01357 86.4 5.00 0.5 0
C1213 RG1 N1337 0.06772 87.8 13.54 0.5 0
C1214 RG1 N826 0.01911 94.6 5.00 0.5 0
C1215 RG1 N290 0.08004 94.9 16.01 0.5 0
C1216 RG1 N934 0.06946 98.1 13.89 0.5 0
C1217 RG1 N121 0.06713 98.0 13.43 0.5 0
C1218 RG1 N1932 0.21529 80.9 43.06 0.5 0
C1219 RG1 N3275 0.02534 92.1 5.07 0.5 0
C1220 RG1 N2103 0.15635 96.7 31.27 0.5 0
C1221 RG1 N1006 0.01998 90.0 5.00 0.5 0
C1222 RG1 N2519 0.06418 95.5 12.84 0.5 0
C1223 RG1 N112 0.03450 94.2 6.90 0.5 0
C1224 RG1 N1873 0.07372 88.9 14.74 0.5 0
C1225 RG1 N3821 0.05125 93.6 10.25 0.5 0
C1226 RG1 N3545 0.07093 91.5 14.19 0.5 0
C1227 RG1 N1767 0.05790 89.1 11.58 0.5 0
C1228 RG1 N2805 0.04381 97.3 8.76 0.5 0
C1229 RG1 N948 0.06915 97.8 13.83 0.5 0
C1230 RG1 N331 0.01731 88.0 5.00 0.5 0
C1231 RG1 N52 0.06713 92.9 13.43 0.5 0
C1232 RG1 N2952 0.35128 85.6 70.26 0.5 0
C1233 RG1 N2152 0.17497 86.0 34.99 0.5 0
C1234 RG1 N2216 0.04658 88.7 9.32 0.5 0
C1235 RG1 N707 0.01860 97.0 5.00 0.5 0
C1236 RG1 N2242 0.04990 93.0 9.98 0.5 0
C1237 RG1 N4068 0.09482 90.4 18.96 0.5 0
C1238 RG1 N347 0.02495 87.1 5.00 0.5 0
C1239 RG1 N3972 0.07200 86.4 14.40 0.5 0
C1240 RG1 N496 0.05759 87.0 11.52 0.5 0
C1241 RG1 N3568 0.16918 78.4 33.84 0.5 0
C1242 RG1 N714 0.09121 87.2 18.24 0.5 0
C1243 RG1 N3708 0.11697 92.0 23.39 0.5 0
C1244 RG1 N109 0.07795 97.4 15.59 0.5 0
C1245 RG1 N2445 0.23809 97.0 47.62 0.5 0
C1246 RG1 N1773 0.03585 93.6 7.17 0.5 0
C1247 RG1 N4070 0.36909 87.8 73.82 0.5 0
C1248 RG1 N3531 0.08175 90.0 16.35 0.5 0
C1249 RG1 N3429 0.01925 89.9 5.00 0.5 0
C1250 RG1 N3259 0.13918 88.0 27.84 0.5 0
C1251 RG1 N2666 0.03753 95.7 7.51 0.5 0
C1252 RG1 N4201 0.02770 92.3 5.54 0.5 0
C1253 RG1 N867 0.13381 72.3 26.76 0.5 0
C1254 RG1 N1776 0.02309 93.7 5.00 0.5 0
C1255 RG1 N2625 0.17461 83.7 34.92 0.5 0
C1256 RG1 N4084 0.04703 90.0 9.41 0.5 0
C1257 RG1 N125 0.04279 92.9 8.56 0.5 0
C1258 RG1 N659 0.04209 94.1 8.42 0.5 0
C1259 RG1 N3478 0.08760 91.5 17.52 0.5 0
C1260 RG1 N1 0.08818 98.5 17.64 0.5 0
C1261 RG1 N3937 0.07684 85.0 15.37 0.5 0
C1262 RG1 N630 0.02930 93.4 5.86 0.5 0
C1263 RG1 N3423 0.05323 86.6 10.65 0.5 0
C1264 RG1 N600 0.02125 92.6 5.00 0.5 0
C1265 RG1 N2498 0.04637 93.0 9.27 0.5 0
C1266 RG1 N919 0.05810 95.7 11.62 0.5 0
C1267 RG1 N1874 0.04744 98.7 9.49 0.5 0
C1268 RG1 N3188 0.03606 85.0 7.21 0.5 0
C1269 RG1 N2658 0.04446 88.5 8.89 0.5 0
C1270 RG1 N2610 0.06631 76.6 13.26 0.5 0
C1271 RG1 N3216 0.09845 91.1 19.69 0.5 0
C1272 RG1 N1880 0.03433 90.1 6.87 0.5 0
C1273 RG1 N3930 0.06826 96.7 13.65 0.5 0
C1274 RG1 N553 0.02029 93.4 5.00 0.5 0
C1275 RG1 N817 0.05261 96.1 10.52 0.5 0
C1276 RG1 N59 0.02831 95.5 5.66 0.5 0
C1277 RG1 N3315 0.03541 95.8 7.08 0.5 0
C1278 RG1 N3027 0.08746 96.3 17.49 0.5 0
C1279 RG1 N936 0.09621 91.6 19.24 0.5 0
C1280 RG1 N3364 0.03393 90.8 6.79 0.5 0
C1281 RG1 N13 0.02638 93.5 5.28 0.5 0
C1282 RG1 N1186 0.07596 91.8 15.19 0.5 0
C1283 RG1 N4244 0.04037 89.5 8.07 0.5 0
C1284 RG1 N1490 0.10678 84.9 21.36 0.5 0
C1285 RG1 N1562 0.03085 85.8 6.17 0.5 0
C1286 RG1 N275 0.04513 97.9 9.03 0.5 0
C1287 RG1 N3945 0.03029 98.7 6.06 0.5 0
C1288 RG1 N1131 0.04214 85.0 8.43 0.5 0
C1289 RG1 N4117 0.13485 76.0 26.97 0.5 0
C1290 RG1 N769 0.02193 98.1 5.00 0.5 0
C1291 RG1 N3563 0.11477 80.6 22.95 0.5 0
C1292 RG1 N2738 0.06533 85.6 13.07 0.5 0
C1293 RG1 N113 0.41541 87.1 83.08 0.5 0
C1294 RG1 N3714 0.02147 94.4 5.00 0.5 0
C1295 RG1 N4057 0.01520 90.7 5.00 0.5 0
C1296 RG1 N3954 0.03273 97.4 6.55 0.5 0
C1297 RG1 N591 0.07453 95.6 14.91 0.5 0
C1298 RG1 N2504 0.02501 85.0 5.00 0.5 0
C1299 RG1 N172 0.14075 87.7 28.15 0.5 0
C1300 RG1 N167 0.06398 85.0 12.80 0.5 0
C1301 RG1 N4337 0.03130 92.6 6.26 0.5 0
C1302 RG1 N1232 0.09606 91.5 19.21 0.5 0
C1303 RG1 N4354 0.06263 91.3 12.53 0.5 0
C1304 RG1 N3519 0.08912 96.0 17.82 0.5 0
C1305 RG1 N5 0.09519 96.7 19.04 0.5 0
C1306 RG1 N2423 0.02926 97.1 5.85 0.5 0
C1307 RG1 N2960 0.15355 94.3 30.71 0.5 0
C1308 RG1 N3184 0.07477 87.7 14.95 0.5 0
C1309 RG1 N3118 0.01345 92.7 5.00 0.5 0
C1310 RG1 N3108 0.07496 93.5 14.99 0.5 0
C1311 RG1 N1292 0.05705 98.1 11.41 0.5 0
C1312 RG1 N589 0.06868 87.5 13.74 0.5 0
C1313 RG1 N872 0.04671 98.2 9.34 0.5 0
C1314 RG1 N3335 0.04509 98.1 9.02 0.5 0
C1315 RG1 N3196 0.03533 89.6 7.07 0.5 0
C1316 RG1 N1928 0.16725 85.5 33.45 0.5 0
C1317 RG1 N1425 0.05225 98.4 10.45 0.5 0
C1318 RG1 N1615 0.04579 94.3 9.16 0.5 0
C1319 RG1 N194 0.08214 77.3 16.43 0.5 0
C1320 RG1 N2555 0.10905 95.9 21.81 0.5 0
C1321 RG1 N2978 0.13865 79.8 27.73 0.5 0
C1322 RG1 N375 0.03499 90.5 7.00 0.5 0
C1323 RG1 N2552 0.11560 83.8 23.12 0.5 0
C1324 RG1 N72 0.08549 94.3 17.10 0.5 0
C1325 RG1 N1607 0.07622 92.5 15.24 0.5 0
C1326 RG1 N551 0.04157 93.0 8.31 0.5 0
C1327 RG1 N1814 0.05874 96.4 11.75 0.5 0
C1328 RG1 N1162 0.18339 93.4 36.68 0.5 0
C1329 RG1 N2338 0.05812 94.0 11.62 0.5 0
C1330 RG1 N674 0.04675 89.0 9.35 0.5 0
C1331 RG1 N803 0.04801 91.8 9.60 0.5 0
C1332 RG1 N3770 0.06268 81.3 12.54 0.5 0
C1333 RG1 N930 0.03128 88.6 6.26 0.5 0
C1334 RG1 N3884 0.08366 95.1 16.73 0.5 0
C1335 RG1 N2906 0.14799 80.5 29.60 0.5 0
C1336 RG1 N2964 0.07365 78.9 14.73 0.5 0
C1337 RG1 N2734 0.08593 96.4 17.19 0.5 0
C1338 RG1 N247 0.07818 97.9 15.64 0.5 0
C1339 RG1 N1181 0.02011 89.5 5.00 0.5 0
C1340 RG1 N3396 0.07107 91.9 14.21 0.5 0
C1341 RG1 N3691 0.03885 96.0 7.77 0.5 0
C1342 RG1 N3640 0.08284 90.1 16.57 0.5 0
C1343 RG1 N726 0.04171 95.0 8.34 0.5 0
C1344 RG1 N1620 0.16308 86.7 32.62 0.5 0
C1345 RG1 N1373 0.09718 91.6 19.44 0.5 0
C1346 RG1 N1743 0.09611 97.6 19.22 0.5 0
C1347 RG1 N1505 0.01895 92.1 5.00 0.5 0
C1348 RG1 N3766 0.11190 88.8 22.38 0.5 0
C1349 RG1 N4218 0.10766 99.1 21.53 0.5 0
C1350 RG1 N4327 0.14818 75.3 29.64 0.5 0
C1351 RG1 N2121 0.03652 86.6 7.30 0.5 0
C1352 RG1 N1388 0.08017 98.7 16.03 0.5 0
C1353 RG1 N4039 0.10692 96.5 21.38 0.5 0
C1354 RG1 N3659 0.09444 84.8 18.89 0.5 0
C1355 RG1 N3830 0.06449 98.6 12.90 0.5 0
C1356 RG1 N864 0.15019 72.5 30.04 0.5 0
C1357 RG1 N3935 0.08258 83.0 16.52 0.5 0
C1358 RG1 N1682 0.04484 95.5 8.97 0.5 0
C1359 RG1 N804 0.13995 98.9 27.99 0.5 0
C1360 RG1 N662 0.06827 93.2 13.65 0.5 0
C1361 RG1 N26 0.01578 98.7 5.00 0.5 0
C1362 RG1 N2012 0.11984 89.1 23.97 0.5 0
C1363 RG1 N62 0.05591 85.0 11.18 0.5 0
C1364 RG1 N1446 0.03546 85.7 7.09 0.5 0
C1365 RG1 N2263 0.09220 89.5 18.44 0.5 0
C1366 RG1 N1923 0.02580 92.0 5.16 0.5 0
C1367 RG1 N1608 0.07719 91.7 15.44 0.5 0
C1368 RG1 N4153 0.05327 89.3 10.65 0.5 0
C1369 RG1 N4035 0.05271 90.7 10.54 0.5 0
C1370 RG1 N3028 0.07061 90.3 14.12 0.5 0
C1371 RG1 N153 0.03516 86.5 7.03 0.5 0
C1372 RG1 N1215 0.07387 91.8 14.77 0.5 0
C1373 RG1 N2149 0.02586 86.9 5.17 0.5 0
C1374 RG1 N430 0.02691 94.0 5.38 0.5 0
C1375 RG1 N3802 0.17758 91.1 35.52 0.5 0
C1376 RG1 N2002 0.02937 87.7 5.87 0.5 0
C1377 RG1 N92 0.01664 94.0 5.00 0.5 0
C1378 RG1 N1774 0.12702 86.9 25.40 0.5 0
C1379 RG1 N3077 0.02916 86.2 5.83 0.5 0
C1380 RG1 N103 0.04045 85.6 8.09 0.5 0
C1381 RG1 N358 0.16818 97.6 33.64 0.5 0
C1382 RG1 N378 0.06042 95.2 12.08 0.5 0
C1383 RG1 N1568 0.08942 99.4 17.88 0.5 0
C1384 RG1 N1648 0.05907 92.7 11.81 0.5 0
C1385 RG1 N897 0.06478 98.6 12.96 0.5 0
C1386 RG1 N1982 0.09420 90.9 18.84 0.5 0
C1387 RG1 N951 0.18283 89.4 36.57 0.5 0
C1388 RG1 N3922 0.01298 85.0 5.00 0.5 0
C1389 RG1 N2091 0.03769 89.2 7.54 0.5 0
C1390 RG1 N1282 0.00765 86.6 5.00 0.5 0
C1391 RG1 N2296 0.26177 77.5 52.35 0.5 0
C1392 RG1 N2418 0.05382 81.7 10.76 0.5 0
C1393 RG1 N2485 0.06278 85.8 12.56 0.5 0
C1394 RG1 N227 0.14265 70.9 28.53 0.5 0
C1395 RG1 N403 0.06754 82.0 13.51 0.5 0
C1396 RG1 N2709 0.00641 85.0 5.00 0.5 0
C1397 RG1 N986 0.03868 88.9 7.74 0.5 0
C1398 RG1 N308 0.05858 85.0 11.72 0.5 0
C1399 RG1 N3565 0.00313 85.0 5.00 0.5 0
C1400 RG1 N1258 0.01103 86.3 5.00 0.5 0
C1401 RG1 N1369 0.06197 85.1 12.39 0.5 0
C1402 RG1 N3603 0.04365 87.8 8.73 0.5 0
C1403 RG1 N3102 0.06423 91.3 12.85 0.5 0
C1404 RG1 N3530 0.10422 95.2 20.84 0.5 0
C1405 RG1 N195 0.06325 96.6 12.65 0.5 0
C1406 RG1 N953 0.05476 91.3 10.95 0.5 0
C1407 RG1 N1047 0.07095 92.3 14.19 0.5 0
C1408 RG1 N3046 0.04798 99.3 9.60 0.5 0
C1409 RG1 N2140 0.01797 87.8 5.00 0.5 0
C1410 RG1 N2230 0.19463 88.9 38.93 0.5 0
C1411 RG1 N1071 0.12986 77.1 25.97 0.5 0
C1412 RG1 N3334 0.07962 99.0 15.92 0.5 0
C1413 RG1 N4061 0.13959 90.7 27.92 0.5 0
C1414 RG1 N980 0.09767 87.6 19.53 0.5 0
C1415 RG1 N645 0.33043 76.8 66.09 0.5 0
C1416 RG1 N1798 0.15284 96.1 30.57 0.5 0
C1417 RG1 N1857 0.06036 97.1 12.07 0.5 0
C1418 RG1 N3092 0.12429 98.2 24.86 0.5 0
C1419 RG1 N1910 0.07042 85.8 14.08 0.5 0
C1420 RG1 N3820 0.06664 95.4 13.33 0.5 0
C1421 RG1 N303 0.13451 82.7 26.90 0.5 0
C1422 RG1 N3809 0.11821 95.4 23.64 0.5 0
C1423 RG1 N2941 0.06912 94.0 13.82 0.5 0
C1424 RG1 N427 0.05566 93.4 11.13 0.5 0
C1425 RG1 N1858 0.11607 76.2 23.21 0.5 0
C1426 RG1 N1573 0.01138 85.0 5.00 0.5 0
C1427 RG1 N1291 0.06785 94.3 13.57 0.5 0
C1428 RG1 N520 0.07655 97.2 15.31 0.5 0
C1429 RG1 N2033 0.02200 87.7 5.00 0.5 0
C1430 RG1 N1757 0.03894 85.0 7.79 0.5 0
C1431 RG1 N4263 0.04960 91.1 9.92 0.5 0
C1432 RG1 N2377 0.05409 88.1 10.82 0.5 0
C1433 RG1 N2060 0.07200 89.5 14.40 0.5 0
C1434 RG1 N2104 0.05978 97.7 11.96 0.5 0
C1435 RG1 N1933 0.01189 85.0 5.00 0.5 0
C1436 RG1 N1106 0.05140 99.0 10.28 0.5 0
C1437 RG1 N3421 0.15553 79.2 31.11 0.5 0
C1438 RG1 N2426 0.06382 91.7 12.76 0.5 0
C1439 RG1 N3176 0.02633 92.2 5.27 0.5 0
C1440 RG1 N2807 0.06327 82.8 12.65 0.5 0
C1441 RG1 N1103 0.09779 91.0 19.56 0.5 0
C1442 RG1 N3480 0.00349 85.0 5.00 0.5 0
C1443 RG1 N2249 0.08638 82.2 17.28 0.5 0
C1444 RG1 N3418 0.13097 76.6 26.19 0.5 0
C1445 RG1 N2005 0.12067 88.6 24.13 0.5 0
C1446 RG1 N1739 0.05752 95.4 11.50 0.5 0
C1447 RG1 N3305 0.00612 85.0 5.00 0.5 0
C1448 RG1 N640 0.00260 85.0 5.00 0.5 0
C1449 RG1 N775 0.10319 94.4 20.64 0.5 0
C1450 RG1 N1950 0.02686 89.0 5.37 0.5 0
C1451 RG1 N3754 0.01490 86.2 5.00 0.5 0
C1452 RG1 N4233 0.10096 77.8 20.19 0.5 0
C1453 RG1 N1321 0.04488 98.1 8.98 0.5 0
C1454 RG1 N2290 0.10695 96.5 21.39 0.5 0
C1455 RG1 N3339 0.05057 84.2 10.11 0.5 0
C1456 RG1 N3452 0.01520 83.6 5.00 0.5 0
C1457 RG1 N1896 0.04647 99.1 9.29 0.5 0
C1458 RG1 N3277 0.11179 82.2 22.36 0.5 0
C1459 RG1 N2892 0.11843 74.5 23.69 0.5 0
C1460 RG1 N266 0.06358 87.2 12.72 0.5 0
C1461 RG1 N23 0.13218 82.3 26.44 0.5 0
C1462 RG1 N1504 0.08726 95.9 17.45 0.5 0
C1463 RG1 N3574 0.02213 98.4 5.00 0.5 0
C1464 RG1 N448 0.08900 99.3 17.80 0.5 0
C1465 RG1 N346 0.05164 91.3 10.33 0.5 0
C1466 RG1 N1034 0.10958 95.8 21.92 0.5 0
C1467 RG1 N2821 0.05130 98.0 10.26 0.5 0
C1468 RG1 N2253 0.01699 93.2 5.00 0.5 0
C1469 RG1 N960 0.08450 96.7 16.90 0.5 0
C1470 RG1 N4129 0.12451 82.1 24.90 0.5 0
C1471 RG1 N3491 0.03850 91.7 7.70 0.5 0
C1472 RG1 N3555 0.08578 90.1 17.16 0.5 0
C1473 RG1 N2489 0.11061 77.7 22.12 0.5 0
C1474 RG1 N669 0.06594 98.4 13.19 0.5 0
C1475 RG1 N1572 0.02502 93.8 5.00 0.5 0
C1476 RG1 N4089 0.06480 91.8 12.96 0.5 0
C1477 RG1 N548 0.07321 94.1 14.64 0.5 0
C1478 RG1 N648 0.05143 86.7 10.29 0.5 0
C1479 RG1 N2173 0.07332 92.1 14.66 0.5 0
C1480 RG1 N2523 0.02407 88.0 5.00 0.5 0
C1481 RG1 N4078 0.05145 86.1 10.29 0.5 0
C1482 RG1 N4342 0.01270 86.9 5.00 0.5 0
C1483 RG1 N2122 0.02068 95.0 5.00 0.5 0
C1484 RG1 N2525 0.06969 96.5 13.94 0.5 0
C1485 RG1 N3881 0.03589 88.7 7.18 0.5 0
C1486 RG1 N2220 0.07043 87.6 14.09 0.5 0
C1487 RG1 N117 0.05512 92.6 11.02 0.5 0
C1488 RG1 N3693 0.01453 81.7 5.00 0.5 0
C1489 RG1 N1164 0.03209 87.1 6.42 0.5 0
C1490 RG1 N37 0.05162 91.8 10.32 0.5 0
C1491 RG1 N2549 0.02587 96.2 5.17 0.5 0
C1492 RG1 N1941 0.19901 77.2 39.80 0.5 0
C1493 RG1 N1000 0.03465 92.1 6.93 0.5 0
C1494 RG1 N849 0.13859 95.9 27.72 0.5 0
C1495 RG1 N2074 0.06270 96.5 12.54 0.5 0
C1496 RG1 N2037 0.07704 85.9 15.41 0.5 0
C1497 RG1 N3186 0.04272 98.3 8.54 0.5 0
C1498 RG1 N2028 0.09655 93.8 19.31 0.5 0
C1499 RG1 N366 0.09710 70.4 19.42 0.5 0
C1500 RG1 N4189 0.19547 63.7 39.09 0.5 0
C1501 RG1 N1042 0.03880 95.7 7.76 0.5 0
C1502 RG1 N231 0.04889 85.1 9.78 0.5 0
C1503 RG1 N3727 0.13161 75.5 26.32 0.5 0
C1504 RG1 N3140 0.09163 97.9 18.33 0.5 0
C1505 RG1 N140 0.14379 96.9 28.76 0.5 0
C1506 RG1 N2538 0.10004 95.1 20.01 0.5 0
C1507 RG1 N4162 0.05070 86.6 10.14 0.5 0
C1508 RG1 N4032 0.05064 98.5 10.13 0.5 0
C1509 RG1 N1953 0.00844 90.3 5.00 0.5 0
C1510 RG1 N2901 0.09560 89.7 19.12 0.5 0
C1511 RG1 N585 0.07551 95.2 15.10 0.5 0
C1512 RG1 N558 0.12316 97.3 24.63 0.5 0
C1513 RG1 N1092 0.05832 91.2 11.66 0.5 0
C1514 RG1 N238 0.09092 95.9 18.18 0.5 0
C1515 RG1 N2545 0.08015 93.4 16.03 0.5 0
C1516 RG1 N988 0.03222 93.3 6.44 0.5 0
C1517 RG1 N3795 0.20204 94.7 40.41 0.5 0
C1518 RG1 N637 0.01420 85.0 5.00 0.5 0
C1519 RG1 N1670 0.10115 95.6 20.23 0.5 0
C1520 RG1 N2928 0.11998 85.2 24.00 0.5 0
C1521 RG1 N2510 0.06095 95.2 12.19 0.5 0
C1522 RG1 N423 0.15203 81.9 30.41 0.5 0
C1523 RG1 N3458 0.03182 89.9 6.36 0.5 0
C1524 RG1 N2697 0.09541 93.0 19.08 0.5 0
C1525 RG1 N2670 0.09996 92.1 19.99 0.5 0
C1526 RG1 N1284 0.13315 72.2 26.63 0.5 0
C1527 RG1 N530 0.02490 92.4 5.00 0.5 0
C1528 RG1 N2509 0.02935 91.5 5.87 0.5 0
C1529 RG1 N1391 0.06718 97.8 13.44 0.5 0
C1530 RG1 N82 0.09859 94.4 19.72 0.5 0
C1531 RG1 N3383 0.05737 72.4 11.47 0.5 0
C1532 RG1 N3310 0.07883 87.0 15.77 0.5 0
C1533 RG1 N1959 0.00778 84.1 5.00 0.5 0
C1534 RG1 N2411 0.04064 96.8 8.13 0.5 0
C1535 RG1 N3543 0.04709 87.8 9.42 0.5 0
C1536 RG1 N1040 0.04458 89.9 8.92 0.5 0
C1537 RG1 N2998 0.02385 88.0 5.00 0.5 0
C1538 RG1 N1459 0.04660 87.9 9.32 0.5 0
C1539 RG1 N842 0.17994 79.5 35.99 0.5 0
C1540 RG1 N228 0.04525 91.1 9.05 0.5 0
C1541 RG1 N2888 0.15970 74.2 31.94 0.5 0
C1542 RG1 N3174 0.02604 96.6 5.21 0.5 0
C1543 RG1 N1589 0.01084 85.0 5.00 0.5 0
C1544 RG1 N2931 0.10203 96.3 20.41 0.5 0
C1545 RG1 N3302 0.02241 86.3 5.00 0.5 0
C1546 RG1 N2624 0.03240 90.4 6.48 0.5 0
C1547 RG1 N2803 0.06034 83.2 12.07 0.5 0
C1548 RG1 N1777 0.16017 83.6 32.03 0.5 0
C1549 RG1 N243 0.08943 93.4 17.89 0.5 0
C1550 RG1 N2963 0.03518 87.8 7.04 0.5 0
C1551 RG1 N2480 0.02060 81.4 5.00 0.5 0
C1552 RG1 N663 0.01130 96.0 5.00 0.5 0
C1553 RG1 N4075 0.11295 98.3 22.59 0.5 0
C1554 RG1 N1061 0.11299 75.6 22.60 0.5 0
C1555 RG1 N1121 0.11885 96.3 23.77 0.5 0
C1556 RG1 N3071 0.21212 83.6 42.42 0.5 0
C1557 RG1 N1197 0.16091 80.2 32.18 0.5 0
C1558 RG1 N222 0.08244 91.2 16.49 0.5 0
C1559 RG1 N4281 0.04051 91.3 8.10 0.5 0
C1560 RG1 N406 0.03195 93.2 6.39 0.5 0
C1561 RG1 N43 0.10551 70.3 21.10 0.5 0
C1562 RG1 N1007 0.07022 75.4 14.04 0.5 0
C1563 RG1 N1077 0.10275 81.2 20.55 0.5 0
C1564 RG1 N1782 0.15664 97.8 31.33 0.5 0
C1565 RG1 N1301 0.09333 95.1 18.67 0.5 0
C1566 RG1 N1044 0.05669 98.0 11.34 0.5 0
C1567 RG1 N1640 0.06183 89.8 12.37 0.5 0
C1568 RG1 N2865 0.02710 80.5 5.42 0.5 0
C1569 RG1 N2784 0.04656 85.7 9.31 0.5 0
C1570 RG1 N1267 0.03724 93.3 7.45 0.5 0
C1571 RG1 N1674 0.12275 72.8 24.55 0.5 0
C1572 RG1 N835 0.01774 90.5 5.00 0.5 0
C1573 RG1 N695 0.07055 80.9 14.11 0.5 0
C1574 RG1 N0 0.07419 88.0 14.84 0.5 0
C1575 RG1 N1386 0.07566 96.1 15.13 0.5 0
C1576 RG1 N736 0.08167 86.3 16.33 0.5 0
C1577 RG1 N3090 0.15297 79.1 30.59 0.5 0
C1578 RG1 N3407 0.03249 90.8 6.50 0.5 0
C1579 RG1 N385 0.04893 93.4 9.79 0.5 0
C1580 RG1 N1943 0.03402 92.2 6.80 0.5 0
C1581 RG1 N1754 0.07591 83.3 15.18 0.5 0
C1582 RG1 N2129 0.23495 92.4 46.99 0.5 0
C1583 RG1 N2357 0.14088 80.9 28.18 0.5 0
C1584 RG1 N3949 0.08289 91.3 16.58 0.5 0
C1585 RG1 N1070 0.05575 93.2 11.15 0.5 0
C1586 RG1 N805 0.11895 95.5 23.79 0.5 0
C1587 RG1 N2765 0.05429 93.3 10.86 0.5 0
C1588 RG1 N2808 0.13659 91.5 27.32 0.5 0
C1589 RG1 N3222 0.16333 90.0 32.67 0.5 0
C1590 RG1 N2643 0.06990 92.1 13.98 0.5 0
C1591 RG1 N3273 0.09441 73.2 18.88 0.5 0
C1592 RG1 N3045 0.01006 87.6 5.00 0.5 0
C1593 RG1 N2819 0.04577 85.9 9.15 0.5 0
C1594 RG1 N3475 0.03306 97.9 6.61 0.5 0
C1595 RG1 N614 0.05751 94.7 11.50 0.5 0
C1596 RG1 N454 0.05844 98.0 11.69 0.5 0
C1597 RG1 N2868 0.06723 89.4 13.45 0.5 0
C1598 RG1 N510 0.01722 91.1 5.00 0.5 0
C1599 RG1 N3066 0.05792 95.8 11.58 0.5 0
C1600 RG1 N4286 0.12226 97.6 24.45 0.5 0
C1601 RG1 N248 0.14915 86.0 29.83 0.5 0
C1602 RG1 N2475 0.08327 86.0 16.65 0.5 0
C1603 RG1 N3793 0.07674 93.9 15.35 0.5 0
C1604 RG1 N1968 0.04358 94.8 8.72 0.5 0
C1605 RG1 N1100 0.07452 83.3 14.90 0.5 0
C1606 RG1 N4186 0.10094 82.7 20.19 0.5 0
C1607 RG1 N3746 0.01787 81.4 5.00 0.5 0
C1608 RG1 N617 0.09691 94.2 19.38 0.5 0
C1609 RG1 N2981 0.09466 87.4 18.93 0.5 0
C1610 RG1 N4024 0.07267 96.2 14.53 0.5 0
C1611 RG1 N745 0.02484 93.3 5.00 0.5 0
C1612 RG1 N3703 0.02656 87.7 5.31 0.5 0
C1613 RG1 N4156 0.05820 93.6 11.64 0.5 0
C1614 RG1 N2671 0.01035 53.9 5.00 0.5 0
C1615 RG1 N2681 0.02467 96.4 5.00 0.5 0
C1616 RG1 N2541 0.03319 91.6 6.64 0.5 0
C1617 RG1 N2401 0.09429 91.2 18.86 0.5 0
C1618 RG1 N3613 0.16321 98.7 32.64 0.5 0
C1619 RG1 N2495 0.05038 95.4 10.08 0.5 0
C1620 RG1 N79 0.01559 88.3 5.00 0.5 0
C1621 RG1 N440 0.05544 92.2 11.09 0.5 0
C1622 RG1 N2399 0.07148 92.6 14.30 0.5 0
C1623 RG1 N1126 0.04599 92.9 9.20 0.5 0
C1624 RG1 N3221 0.05927 86.6 11.85 0.5 0
C1625 RG1 N1105 0.06652 89.3 13.30 0.5 0
C1626 RG1 N3715 0.06794 81.8 13.59 0.5 0
C1627 RG1 N439 0.11827 76.8 23.65 0.5 0
C1628 RG1 N1062 0.04350 89.1 8.70 0.5 0
C1629 RG1 N1346 0.08269 93.9 16.54 0.5 0
C1630 RG1 N708 0.09105 78.1 18.21 0.5 0
C1631 RG1 N2190 0.01265 71.4 5.00 0.5 0
C1632 RG1 N3497 0.05199 93.1 10.40 0.5 0
C1633 RG1 N1345 0.00852 85.0 5.00 0.5 0
C1634 RG1 N1385 0.01374 85.3 5.00 0.5 0
C1635 RG1 N3044 0.03361 93.0 6.72 0.5 0
C1636 RG1 N928 0.12855 89.0 25.71 0.5 0
C1637 RG1 N1145 0.11151 92.6 22.30 0.5 0
C1638 RG1 N2559 0.10767 89.3 21.53 0.5 0
C1639 RG1 N1999 0.06647 92.1 13.29 0.5 0
C1640 RG1 N1409 0.14573 73.4 29.15 0.5 0
C1641 RG1 N3928 0.05217 92.9 10.43 0.5 0
C1642 RG1 N3024 0.06600 90.1 13.20 0.5 0
C1643 RG1 N3557 0.00981 85.0 5.00 0.5 0
C1644 RG1 N2137 0.07883 84.5 15.77 0.5 0
C1645 RG1 N1191 0.10399 82.7 20.80 0.5 0
C1646 RG1 N3299 0.08420 83.0 16.84 0.5 0
C1647 RG1 N3616 0.02351 89.9 5.00 0.5 0
C1648 RG1 N1224 0.01887 93.3 5.00 0.5 0
C1649 RG1 N3576 0.01238 91.2 5.00 0.5 0
C1650 RG1 N3644 0.09732 75.5 19.46 0.5 0
C1651 RG1 N2391 0.06104 91.0 12.21 0.5 0
C1652 RG1 N1466 0.07594 74.3 15.19 0.5 0
C1653 RG1 N220 0.03986 94.0 7.97 0.5 0
C1654 RG1 N759 0.15095 96.5 30.19 0.5 0
C1655 RG1 N3560 0.05005 96.2 10.01 0.5 0
C1656 RG1 N1452 0.03095 81.8 6.19 0.5 0
C1657 RG1 N417 0.10464 93.4 20.93 0.5 0
C1658 RG1 N1441 0.11957 86.7 23.91 0.5 0
C1659 RG1 N3014 0.04761 96.0 9.52 0.5 0
C1660 RG1 N1303 0.11206 90.5 22.41 0.5 0
C1661 RG1 N2835 0.02100 85.6 5.00 0.5 0
C1662 RG1 N2591 0.05709 85.2 11.42 0.5 0
C1663 RG1 N2486 0.06058 88.0 12.12 0.5 0
C1664 RG1 N4364 0.07307 75.2 14.61 0.5 0
C1665 RG1 N1534 0.08572 79.9 17.14 0.5 0
C1666 RG1 N401 0.07385 96.7 14.77 0.5 0
C1667 RG1 N4187 0.05985 87.9 11.97 0.5 0
C1668 RG1 N1109 0.06365 82.1 12.73 0.5 0
C1669 RG1 N2438 0.05584 91.3 11.17 0.5 0
C1670 RG1 N2275 0.04156 91.0 8.31 0.5 0
C1671 RG1 N1130 0.07760 81.0 15.52 0.5 0
C1672 RG1 N1458 0.05426 91.1 10.85 0.5 0
C1673 RG1 N2647 0.07836 75.0 15.67 0.5 0
C1674 RG1 N4209 0.11809 92.9 23.62 0.5 0
C1675 RG1 N372 0.09438 76.2 18.88 0.5 0
C1676 RG1 N78 0.02634 82.1 5.27 0.5 0
C1677 RG1 N3625 0.05864 80.3 11.73 0.5 0
C1678 RG1 N1661 0.05189 90.7 10.38 0.5 0
C1679 RG1 N2395 0.03529 92.9 7.06 0.5 0
C1680 RG1 N715 0.08838 93.7 17.68 0.5 0
C1681 RG1 N1474 0.07729 88.5 15.46 0.5 0
C1682 RG1 N2598 0.09461 90.7 18.92 0.5 0
C1683 RG1 N267 0.11945 95.8 23.89 0.5 0
C1684 RG1 N2736 0.01981 93.4 5.00 0.5 0
C1685 RG1 N276 0.02933 89.4 5.87 0.5 0
C1686 RG1 N3904 0.05373 81.5 10.75 0.5 0
C1687 RG1 N2596 0.39566 87.4 79.13 0.5 0
C1688 RG1 N3295 0.06117 90.9 12.23 0.5 0
C1689 RG1 N3739 0.08916 96.6 17.83 0.5 0
C1690 RG1 N28 0.05565 88.3 11.13 0.5 0
C1691 RG1 N3172 0.13537 88.8 27.07 0.5 0
C1692 RG1 N185 0.09827 98.3 19.65 0.5 0
C1693 RG1 N1179 0.05309 82.7 10.62 0.5 0
C1694 RG1 N2992 0.02888 86.6 5.78 0.5 0
C1695 RG1 N1565 0.06337 89.5 12.67 0.5 0
C1696 RG1 N80 0.03778 93.7 7.56 0.5 0
C1697 RG1 N2705 0.06285 94.6 12.57 0.5 0
C1698 RG1 N991 0.06926 98.6 13.85 0.5 0
C1699 RG1 N3782 0.02602 88.7 5.20 0.5 0
C1700 RG1 N4221 0.04319 77.0 8.64 0.5 0
C1701 RG1 N1566 0.16596 75.7 33.19 0.5 0
C1702 RG1 N3146 0.03663 91.2 7.33 0.5 0
C1703 RG1 N1262 0.00745 71.7 5.00 0.5 0
C1704 RG1 N661 0.07522 78.0 15.04 0.5 0
C1705 RG1 N3294 0.11303 72.4 22.61 0.5 0
C1706 RG1 N4224 0.08843 98.9 17.69 0.5 0
C1707 RG1 N1838 0.07015 81.5 14.03 0.5 0
C1708 RG1 N571 0.05776 83.1 11.55 0.5 0
C1709 RG1 N230 0.02481 93.0 5.00 0.5 0
C1710 RG1 N1427 0.03033 74.1 6.07 0.5 0
C1711 RG1 N3098 0.15442 83.3 30.88 0.5 0
C1712 RG1 N2945 0.07030 85.4 14.06 0.5 0
C1713 RG1 N3950 0.04436 88.0 8.87 0.5 0
C1714 RG1 N4360 0.03721 84.8 7.44 0.5 0
C1715 RG1 N3582 0.05942 91.7 11.88 0.5 0
C1716 RG1 N3669 0.06716 89.1 13.43 0.5 0
C1717 RG1 N829 0.03633 84.8 7.27 0.5 0
C1718 RG1 N870 0.01954 90.3 5.00 0.5 0
C1719 RG1 N3461 0.08241 96.5 16.48 0.5 0
C1720 RG1 N3344 0.08085 94.2 16.17 0.5 0
C1721 RG1 N840 0.04375 87.1 8.75 0.5 0
C1722 RG1 N1167 0.03304 92.1 6.61 0.5 0
C1723 RG1 N3435 0.03421 95.3 6.84 0.5 0
C1724 RG1 N3449 0.04622 87.4 9.24 0.5 0
C1725 RG1 N1195 0.14792 96.1 29.58 0.5 0
C1726 RG1 N4094 0.15455 89.0 30.91 0.5 0
C1727 RG1 N1113 0.05959 87.7 11.92 0.5 0
C1728 RG1 N209 0.16499 88.3 33.00 0.5 0
C1729 RG1 N4356 0.09766 89.5 19.53 0.5 0
C1730 RG1 N1969 0.02407 88.0 5.00 0.5 0
C1731 RG1 N2025 0.00404 76.5 5.00 0.5 0
C1732 RG1 N1112 0.02828 85.7 5.66 0.5 0
C1733 RG1 N3493 0.06995 88.3 13.99 0.5 0
C1734 RG1 N690 0.22311 80.9 44.62 0.5 0
C1735 RG1 N369 0.02948 88.1 5.90 0.5 0
C1736 RG1 N3899 0.05003 93.6 10.01 0.5 0
C1737 RG1 N4 0.05966 92.4 11.93 0.5 0
C1738 RG1 N696 0.06544 87.7 13.09 0.5 0
C1739 RG1 N3141 0.16629 87.5 33.26 0.5 0
C1740 RG1 N71 0.10059 78.9 20.12 0.5 0
C1741 RG1 N3583 0.02471 85.7 5.00 0.5 0
C1742 RG1 N293 0.03238 83.8 6.48 0.5 0
C1743 RG1 N363 0.05325 90.0 10.65 0.5 0
C1744 RG1 N2393 0.04570 96.9 9.14 0.5 0
C1745 RG1 N713 0.05485 90.3 10.97 0.5 0
C1746 RG1 N2379 0.09366 83.0 18.73 0.5 0
C1747 RG1 N3225 0.07047 84.8 14.09 0.5 0
C1748 RG1 N3635 0.04826 91.7 9.65 0.5 0
C1749 RG1 N4176 0.10428 90.0 20.86 0.5 0
C1750 RG1 N3159 0.04487 76.1 8.97 0.5 0
C1751 RG1 N3121 0.04149 92.4 8.30 0.5 0
C1752 RG1 N3356 0.04089 96.4 8.18 0.5 0
C1753 RG1 N2364 0.01555 75.0 5.00 0.5 0
C1754 RG1 N1413 0.11982 65.4 23.96 0.5 0
C1755 RG1 N999 0.10488 94.5 20.98 0.5 0
C1756 RG1 N920 0.02054 95.9 5.00 0.5 0
C1757 RG1 N1951 0.02581 91.2 5.16 0.5 0
C1758 RG1 N1977 0.02576 89.5 5.15 0.5 0
C1759 RG1 N246 0.03514 86.7 7.03 0.5 0
C1760 RG1 N3866 0.10567 69.8 21.13 0.5 0
C1761 RG1 N935 0.03968 92.7 7.94 0.5 0
C1762 RG1 N634 0.13621 91.2 27.24 0.5 0
C1763 RG1 N1138 0.09089 93.5 18.18 0.5 0
C1764 RG1 N2847 0.04731 90.6 9.46 0.5 0
C1765 RG1 N258 0.09903 98.2 19.81 0.5 0
C1766 RG1 N66 0.08589 95.4 17.18 0.5 0
C1767 RG1 N4033 0.15718 93.9 31.44 0.5 0
C1768 RG1 N1312 0.16502 76.4 33.00 0.5 0
C1769 RG1 N4115 0.02269 93.5 5.00 0.5 0
C1770 RG1 N402 0.03158 88.4 6.32 0.5 0
C1771 RG1 N730 0.07346 94.0 14.69 0.5 0
C1772 RG1 N1330 0.05862 89.5 11.72 0.5 0
C1773 RG1 N1812 0.03452 97.4 6.90 0.5 0
C1774 RG1 N1399 0.16222 83.5 32.44 0.5 0
C1775 RG1 N603 0.33845 82.2 67.69 0.5 0
C1776 RG1 N2270 0.03197 92.8 6.39 0.5 0
C1777 RG1 N709 0.06931 92.2 13.86 0.5 0
C1778 RG1 N3737 0.02132 87.8 5.00 0.5 0
C1779 RG1 N1708 0.02636 89.2 5.27 0.5 0
C1780 RG1 N1920 0.05575 94.3 11.15 0.5 0
C1781 RG1 N4239 0.05797 93.7 11.59 0.5 0
C1782 RG1 N2695 0.08016 92.3 16.03 0.5 0
C1783 RG1 N2120 0.04851 87.3 9.70 0.5 0
C1784 RG1 N3232 0.09044 93.4 18.09 0.5 0
C1785 RG1 N2909 0.06523 90.3 13.05 0.5 0
C1786 RG1 N1597 0.02633 85.0 5.27 0.5 0
C1787 RG1 N2006 0.03158 86.8 6.32 0.5 0
C1788 RG1 N3487 0.12085 88.4 24.17 0.5 0
C1789 RG1 N200 0.03582 91.4 7.16 0.5 0
C1790 RG1 N4348 0.00305 85.0 5.00 0.5 0
C1791 RG1 N1183 0.02927 93.6 5.85 0.5 0
C1792 RG1 N50 0.05098 100.0 10.20 0.5 0
C1793 RG1 N3744 0.05877 89.0 11.75 0.5 0
C1794 RG1 N1120 0.03297 96.7 6.59 0.5 0
C1795 RG1 N523 0.04281 91.2 8.56 0.5 0
C1796 RG1 N761 0.04221 96.2 8.44 0.5 0
C1797 RG1 N285 0.03150 91.8 6.30 0.5 0
C1798 RG1 N2867 0.07603 91.9 15.21 0.5 0
C1799 RG1 N1090 0.24590 85.0 49.18 0.5 0
C1800 RG1 N790 0.18586 82.3 37.17 0.5 0
C1801 RG1 N3414 0.02985 98.1 5.97 0.5 0
C1802 RG1 N2474 0.15499 93.0 31.00 0.5 0
C1803 RG1 N1866 0.04488 94.8 8.98 0.5 0
C1804 RG1 N3189 0.07304 90.8 14.61 0.5 0
C1805 RG1 N2685 0.00763 86.8 5.00 0.5 0
C1806 RG1 N1764 0.06326 95.4 12.65 0.5 0
C1807 RG1 N2971 0.05382 87.8 10.76 0.5 0
C1808 RG1 N404 0.04358 98.0 8.72 0.5 0
C1809 RG1 N3838 0.04035 91.1 8.07 0.5 0
C1810 RG1 N1392 0.08471 87.1 16.94 0.5 0
C1811 RG1 N2008 0.01068 95.6 5.00 0.5 0
C1812 RG1 N4042 0.09140 98.9 18.28 0.5 0
C1813 RG1 N2896 0.17229 85.1 34.46 0.5 0
C1814 RG1 N298 0.02257 86.4 5.00 0.5 0
C1815 RG1 N2307 0.01986 91.1 5.00 0.5 0
C1816 RG1 N3457 0.02768 94.3 5.54 0.5 0
C1817 RG1 N1642 0.07279 98.3 14.56 0.5 0
C1818 RG1 N2614 0.00612 85.0 5.00 0.5 0
C1819 RG1 N2933 0.14075 73.1 28.15 0.5 0
C1820 RG1 N2926 0.08328 93.9 16.66 0.5 0
C1821 RG1 N3126 0.07763 91.2 15.53 0.5 0
C1822 RG1 N1899 0.05339 82.8 10.68 0.5 0
C1823 RG1 N262 0.02069 95.1 5.00 0.5 0
C1824 RG1 N3573 0.02244 93.7 5.00 0.5 0
C1825 RG1 N2987 0.04343 99.9 8.69 0.5 0
C1826 RG1 N88 0.09838 95.2 19.68 0.5 0
C1827 RG1 N184 0.00456 85.0 5.00 0.5 0
C1828 RG1 N2151 0.06482 90.9 12.96 0.5 0
C1829 RG1 N1551 0.02154 95.5 5.00 0.5 0
C1830 RG1 N4210 0.04030 96.6 8.06 0.5 0
C1831 RG1 N599 0.01926 95.2 5.00 0.5 0
C1832 RG1 N2922 0.02114 88.5 5.00 0.5 0
C1833 RG1 N3787 0.05537 90.9 11.07 0.5 0
C1834 RG1 N629 0.02410 90.0 5.00 0.5 0
C1835 RG1 N676 0.01409 97.9 5.00 0.5 0
C1836 RG1 N2589 0.06937 82.6 13.87 0.5 0
C1837 RG1 N2150 0.12502 93.3 25.00 0.5 0
C1838 RG1 N3182 0.04524 90.5 9.05 0.5 0
C1839 RG1 N2292 0.04706 93.2 9.41 0.5 0
C1840 RG1 N3965 0.07203 93.3 14.41 0.5 0
C1841 RG1 N3927 0.09071 93.8 18.14 0.5 0
C1842 RG1 N3549 0.23001 84.4 46.00 0.5 0
C1843 RG1 N3117 0.03273 92.2 6.55 0.5 0
C1844 RG1 N1775 0.06443 87.8 12.89 0.5 0
C1845 RG1 N658 0.18147 83.2 36.29 0.5 0
C1846 RG1 N1978 0.01266 85.2 5.00 0.5 0
C1847 RG1 N992 0.20491 78.3 40.98 0.5 0
C1848 RG1 N2291 0.05124 88.7 10.25 0.5 0
C1849 RG1 N165 0.02623 91.2 5.25 0.5 0
C1850 RG1 N3527 0.02330 88.7 5.00 0.5 0
C1851 RG1 N157 0.00775 85.0 5.00 0.5 0
C1852 RG1 N3122 0.15512 94.9 31.02 0.5 0
C1853 RG1 N2141 0.00983 80.7 5.00 0.5 0
C1854 RG1 N1955 0.01787 76.2 5.00 0.5 0
C1855 RG1 N1842 0.03547 81.3 7.09 0.5 0
C1856 RG1 N2044 0.01485 95.7 5.00 0.5 0
C1857 RG1 N506 0.04768 94.4 9.54 0.5 0
C1858 RG1 N470 0.04398 93.4 8.80 0.5 0
C1859 RG1 N1426 0.02105 83.4 5.00 0.5 0
C1860 RG1 N742 0.13812 78.3 27.62 0.5 0
C1861 RG1 N1901 0.10285 91.8 20.57 0.5 0
C1862 RG1 N813 0.07052 88.4 14.10 0.5 0
C1863 RG1 N4064 0.11359 88.3 22.72 0.5 0
C1864 RG1 N124 0.10850 65.3 21.70 0.5 0
C1865 RG1 N1290 0.18318 90.2 36.64 0.5 0
C1866 RG1 N1495 0.02888 99.7 5.78 0.5 0
C1867 RG1 N2187 0.04698 93.4 9.40 0.5 0
C1868 RG1 N83 0.06401 83.8 12.80 0.5 0
C1869 RG1 N2419 0.18776 91.7 37.55 0.5 0
C1870 RG1 N3438 0.02306 91.3 5.00 0.5 0
C1871 RG1 N1839 0.01693 87.4 5.00 0.5 0
C1872 RG1 N1211 0.06579 53.7 13.16 0.5 0
C1873 RG1 N2665 0.01028 92.2 5.00 0.5 0
C1874 RG1 N3709 0.06327 96.1 12.65 0.5 0
C1875 RG1 N1905 0.09190 92.2 18.38 0.5 0
C1876 RG1 N1248 0.01799 85.0 5.00 0.5 0
C1877 RG1 N2192 0.02758 87.1 5.52 0.5 0
C1878 RG1 N2055 0.23889 92.2 47.78 0.5 0
C1879 RG1 N4002 0.00373 85.0 5.00 0.5 0
C1880 RG1 N4006 0.03927 90.3 7.85 0.5 0
C1881 RG1 N2228 0.06536 92.0 13.07 0.5 0
C1882 RG1 N681 0.00672 93.9 5.00 0.5 0
C1883 RG1 N1012 0.01259 84.2 5.00 0.5 0
C1884 RG1 N3859 0.00567 85.0 5.00 0.5 0
C1885 RG1 N2341 0.04758 90.3 9.52 0.5 0
C1886 RG1 N602 0.01443 88.6 5.00 0.5 0
C1887 RG1 N400 0.18643 79.2 37.29 0.5 0
C1888 RG1 N793 0.15925 75.1 31.85 0.5 0
C1889 RG1 N1693 0.06125 96.4 12.25 0.5 0
C1890 RG1 N3469 0.03544 91.7 7.09 0.5 0
C1891 RG1 N2041 0.01611 93.1 5.00 0.5 0
C1892 RG1 N1068 0.02636 88.5 5.27 0.5 0
C1893 RG1 N4169 0.07177 90.8 14.35 0.5 0
C1894 RG1 N1503 0.00747 91.9 5.00 0.5 0
C1895 RG1 N1535 0.01385 89.9 5.00 0.5 0
C1896 RG1 N3007 0.03364 91.5 6.73 0.5 0
C1897 RG1 N3331 0.05127 92.9 10.25 0.5 0
C1898 RG1 N542 0.14852 86.7 29.70 0.5 0
C1899 RG1 N4159 0.00869 83.9 5.00 0.5 0
C1900 RG1 N2788 0.01946 82.6 5.00 0.5 0
C1901 RG1 N947 0.03522 97.1 7.04 0.5 0
C1902 RG1 N2568 0.02943 87.7 5.89 0.5 0
C1903 RG1 N3748 0.01714 90.7 5.00 0.5 0
C1904 RG1 N1742 0.01464 94.0 5.00 0.5 0
C1905 RG1 N2202 0.01525 90.5 5.00 0.5 0
C1906 RG1 N3688 0.04431 94.0 8.86 0.5 0
C1907 RG1 N126 0.04557 79.4 9.11 0.5 0
C1908 RG1 N1080 0.07952 93.9 15.90 0.5 0
C1909 RG1 N3955 0.07789 90.5 15.58 0.5 0
C1910 RG1 N214 0.06954 84.3 13.91 0.5 0
C1911 RG1 N963 0.12012 89.6 24.02 0.5 0
C1912 RG1 N1005 0.01305 90.7 5.00 0.5 0
C1913 RG1 N2889 0.04193 94.2 8.39 0.5 0
C1914 RG1 N2814 0.02278 87.8 5.00 0.5 0
C1915 RG1 N2176 0.05303 94.5 10.61 0.5 0
C1916 RG1 N3833 0.06352 91.1 12.70 0.5 0
C1917 RG1 N1499 0.00898 82.5 5.00 0.5 0
C1918 RG1 N1807 0.07347 88.7 14.69 0.5 0
C1919 RG1 N3187 0.02452 86.5 5.00 0.5 0
C1920 RG1 N4062 0.03429 75.1 6.86 0.5 0
C1921 RG1 N3341 0.01725 89.8 5.00 0.5 0
C1922 RG1 N2724 0.02827 89.3 5.65 0.5 0
C1923 RG1 N2384 0.01763 86.1 5.00 0.5 0
C1924 RG1 N656 0.06317 93.1 12.63 0.5 0
C1925 RG1 N3056 0.02694 92.7 5.39 0.5 0
C1926 RG1 N9 0.01001 86.6 5.00 0.5 0
C1927 RG1 N584 0.03177 89.0 6.35 0.5 0
C1928 RG1 N1468 0.05035 92.6 10.07 0.5 0
C1929 RG1 N383 0.01297 84.5 5.00 0.5 0
C1930 RG1 N2628 0.08441 87.5 16.88 0.5 0
C1931 RG1 N3890 0.04101 90.2 8.20 0.5 0
C1932 RG1 N1828 0.03419 91.1 6.84 0.5 0
C1933 RG1 N4179 0.03053 90.8 6.11 0.5 0
C1934 RG1 N4077 0.06423 96.4 12.85 0.5 0
C1935 RG1 N1213 0.09725 79.7 19.45 0.5 0
C1936 RG1 N2146 0.02104 90.3 5.00 0.5 0
C1937 RG1 N4009 0.03909 96.4 7.82 0.5 0
C1938 RG1 N2326 0.04494 90.9 8.99 0.5 0
C1939 RG1 N4121 0.04574 89.7 9.15 0.5 0
C1940 RG1 N3984 0.06700 98.1 13.40 0.5 0
C1941 RG1 N1808 0.10778 96.4 21.56 0.5 0
C1942 RG1 N2328 0.03320 92.9 6.64 0.5 0
C1943 RG1 N3867 0.06217 93.4 12.43 0.5 0
C1944 RG1 N3036 0.05981 90.8 11.96 0.5 0
C1945 RG1 N2487 0.12487 84.3 24.97 0.5 0
C1946 RG1 N757 0.05651 89.7 11.30 0.5 0
C1947 RG1 N837 0.07240 89.0 14.48 0.5 0
C1948 RG1 N474 0.04333 92.3 8.67 0.5 0
C1949 RG1 N444 0.05197 98.4 10.39 0.5 0
C1950 RG1 N2740 0.00483 85.0 5.00 0.5 0
C1951 RG1 N500 0.01676 88.6 5.00 0.5 0
C1952 RG1 N2488 0.05133 91.0 10.27 0.5 0
C1953 RG1 N1024 0.07463 91.5 14.93 0.5 0
C1954 RG1 N1849 0.08526 96.9 17.05 0.5 0
C1955 RG1 N2649 0.07816 97.7 15.63 0.5 0
C1956 RG1 N2737 0.03223 86.1 6.45 0.5 0
C1957 RG1 N2739 0.02078 95.3 5.00 0.5 0
C1958 RG1 N2294 0.14990 75.0 29.98 0.5 0
C1959 RG1 N1564 0.11650 94.6 23.30 0.5 0
C1960 RG1 N1636 0.05572 87.6 11.14 0.5 0
C1961 RG1 N1603 0.04234 94.7 8.47 0.5 0
C1962 RG1 N2563 0.16310 88.2 32.62 0.5 0
C1963 RG1 N180 0.01661 89.7 5.00 0.5 0
C1964 RG1 N940 0.04025 94.8 8.05 0.5 0
C1965 RG1 N3786 0.00981 85.9 5.00 0.5 0
C1966 RG1 N3524 0.19068 93.2 38.14 0.5 0
C1967 RG1 N1689 0.06845 91.7 13.69 0.5 0
C1968 RG1 N2672 0.08027 88.2 16.05 0.5 0
C1969 RG1 N4268 0.05197 96.2 10.39 0.5 0
C1970 RG1 N3338 0.05903 90.5 11.81 0.5 0
C1971 RG1 N3864 0.01741 94.1 5.00 0.5 0
C1972 RG1 N2576 0.07619 89.2 15.24 0.5 0
C1973 RG1 N811 0.10022 93.7 20.04 0.5 0
C1974 RG1 N333 0.04768 96.5 9.54 0.5 0
C1975 RG1 N1397 0.11861 90.8 23.72 0.5 0
C1976 RG1 N7 0.05724 91.1 11.45 0.5 0
C1977 RG1 N3700 0.08195 79.8 16.39 0.5 0
C1978 RG1 N2340 0.02271 88.4 5.00 0.5 0
C1979 RG1 N734 0.04190 85.2 8.38 0.5 0
C1980 RG1 N2259 0.00677 84.3 5.00 0.5 0
C1981 RG1 N784 0.10641 83.6 21.28 0.5 0
C1982 RG1 N3915 0.12027 86.9 24.05 0.5 0
C1983 RG1 N3874 0.02411 92.1 5.00 0.5 0
C1984 RG1 N148 0.04473 93.5 8.95 0.5 0
C1985 RG1 N3857 0.15339 74.3 30.68 0.5 0
C1986 RG1 N925 0.08102 86.1 16.20 0.5 0
C1987 RG1 N2996 0.04952 94.1 9.90 0.5 0
C1988 RG1 N3018 0.11634 92.4 23.27 0.5 0
C1989 RG1 N1889 0.02173 83.6 5.00 0.5 0
C1990 RG1 N2210 0.05462 97.5 10.92 0.5 0
C1991 RG1 N1971 0.01472 88.2 5.00 0.5 0
C1992 RG1 N17 0.17124 87.6 34.25 0.5 0
C1993 RG1 N1254 0.06705 94.0 13.41 0.5 0
C1994 RG1 N1257 0.03467 93.3 6.93 0.5 0
C1995 RG1 N3319 0.07063 91.1 14.13 0.5 0
C1996 RG1 N4206 0.15877 78.5 31.75 0.5 0
C1997 RG1 N3060 0.04617 94.9 9.23 0.5 0
C1998 RG1 N3054 0.09623 88.7 19.25 0.5 0
C1999 RG1 N522 0.11443 84.6 22.89 0.5 0
C2000 RG1 N814 0.11424 94.8 22.85 0.5 0
C2001 RG1 N1966 0.08368 81.0 16.74 0.5 0
C2002 RG1 N729 0.07455 83.3 14.91 0.5 0
C2003 RG1 N2337 0.10300 93.8 20.60 0.5 0
C2004 RG1 N4158 0.05276 95.8 10.55 0.5 0
C2005 RG1 N3633 0.02074 94.6 5.00 0.5 0
C2006 RG1 N667 0.04582 95.1 9.16 0.5 0
C2007 RG1 N3731 0.05065 96.6 10.13 0.5 0
C2008 RG1 N2759 0.09378 98.4 18.76 0.5 0
C2009 RG1 N3332 0.09913 85.4 19.83 0.5 0
C2010 RG1 N3961 0.07175 91.3 14.35 0.5 0
C2011 RG1 N2312 0.04194 93.7 8.39 0.5 0
C2012 RG1 N3064 0.00343 92.9 5.00 0.5 0
C2013 RG1 N44 0.20990 78.6 41.98 0.5 0
C2014 RG1 N1374 0.06172 94.4 12.34 0.5 0
C2015 RG1 N3006 0.10403 87.3 20.81 0.5 0
C2016 RG1 N2533 0.03648 96.8 7.30 0.5 0
C2017 RG1 N1076 0.03811 90.7 7.62 0.5 0
C2018 RG1 N1904 0.04335 98.0 8.67 0.5 0
C2019 RG1 N3854 0.04891 96.3 9.78 0.5 0
C2020 RG1 N1853 0.03966 95.4 7.93 0.5 0
C2021 RG1 N3647 0.18115 88.0 36.23 0.5 0
C2022 RG1 N1393 0.00971 82.4 5.00 0.5 0
C2023 RG1 N1508 0.01261 82.6 5.00 0.5 0
C2024 RG1 N466 0.05122 91.7 10.24 0.5 0
C2025 RG1 N1803 0.05526 88.6 11.05 0.5 0
C2026 RG1 N1555 0.02155 93.3 5.00 0.5 0
C2027 RG1 N2343 0.07925 92.2 15.85 0.5 0
C2028 RG1 N2886 0.04316 90.8 8.63 0.5 0
C2029 RG1 N855 0.04966 91.3 9.93 0.5 0
C2030 RG1 N4124 0.09253 90.8 18.51 0.5 0
C2031 RG1 N2970 0.04474 91.0 8.95 0.5 0
C2032 RG1 N123 0.04876 91.2 9.75 0.5 0
C2033 RG1 N3619 0.05072 86.6 10.14 0.5 0
C2034 RG1 N256 0.08007 90.7 16.01 0.5 0
C2035 RG1 N3893 0.06336 80.1 12.67 0.5 0
C2036 RG1 N3778 0.08083 84.8 16.17 0.5 0
C2037 RG1 N250 0.07084 90.5 14.17 0.5 0
C2038 RG1 N2131 0.04787 94.1 9.57 0.5 0
C2039 RG1 N1368 0.04871 89.2 9.74 0.5 0
C2040 RG1 N2297 0.12359 90.4 24.72 0.5 0
C2041 RG1 N3226 0.03948 95.1 7.90 0.5 0
C2042 RG1 N317 0.03697 85.6 7.39 0.5 0
C2043 RG1 N544 0.03124 89.4 6.25 0.5 0
C2044 RG1 N3658 0.08945 91.3 17.89 0.5 0
C2045 RG1 N1662 0.03792 96.8 7.58 0.5 0
C2046 RG1 N3792 0.13472 94.5 26.94 0.5 0
C2047 RG1 N485 0.18692 75.3 37.38 0.5 0
C2048 RG1 N122 0.22809 77.4 45.62 0.5 0
C2049 RG1 N1834 0.07604 96.3 15.21 0.5 0
C2050 RG1 N420 0.02796 98.6 5.59 0.5 0
C2051 RG1 N4248 0.03784 91.7 7.57 0.5 0
C2052 RG1 N110 0.09371 88.7 18.74 0.5 0
C2053 RG1 N4157 0.11248 91.6 22.50 0.5 0
C2054 RG1 N3300 0.27817 81.4 55.63 0.5 0
C2055 RG1 N2020 0.04349 91.3 8.70 0.5 0
C2056 RG1 N2796 0.07134 91.0 14.27 0.5 0
C2057 RG1 N1096 0.05551 86.7 11.10 0.5 0
C2058 RG1 N3377 0.18607 91.9 37.21 0.5 0
C2059 RG1 N1304 0.11425 92.1 22.85 0.5 0
C2060 RG1 N4362 0.01393 97.9 5.00 0.5 0
C2061 RG1 N2366 0.01734 87.3 5.00 0.5 0
C2062 RG1 N536 0.03375 95.8 6.75 0.5 0
C2063 RG1 N2834 0.08332 92.5 16.66 0.5 0
C2064 RG1 N3597 0.04540 89.7 9.08 0.5 0
C2065 RG1 N1748 0.03655 93.3 7.31 0.5 0
C2066 RG1 N3320 0.29150 91.8 58.30 0.5 0
C2067 RG1 N909 0.04103 89.7 8.21 0.5 0
C2068 RG1 N1659 0.40513 77.5 81.03 0.5 0
C2069 RG1 N525 0.06031 92.1 12.06 0.5 0
C2070 RG1 N697 0.05021 92.7 10.04 0.5 0
C2071 RG1 N1665 0.11063 92.6 22.13 0.5 0
C2072 RG1 N4237 0.12006 83.9 24.01 0.5 0
C2073 RG1 N639 0.02464 89.6 5.00 0.5 0
C2074 RG1 N4346 0.06803 86.0 13.61 0.5 0
C2075 RG1 N3256 0.12300 89.1 24.60 0.5 0
C2076 RG1 N2075 0.13791 93.0 27.58 0.5 0
C2077 RG1 N4351 0.00784 71.4 5.00 0.5 0
C2078 RG1 N2860 0.08158 86.5 16.32 0.5 0
C2079 RG1 N4011 0.07461 93.2 14.92 0.5 0
C2080 RG1 N1859 0.01148 85.9 5.00 0.5 0
C2081 RG1 N2469 0.09240 82.6 18.48 0.5 0
C2082 RG1 N4190 0.12144 80.1 24.29 0.5 0
C2083 RG1 N3160 0.08634 85.7 17.27 0.5 0
C2084 RG1 N1223 0.00714 85.0 5.00 0.5 0
C2085 RG1 N2609 0.01688 91.7 5.00 0.5 0
C2086 RG1 N824 0.08387 84.7 16.77 0.5 0
C2087 RG1 N616 0.14328 92.7 28.66 0.5 0
C2088 RG1 N2178 0.00425 84.8 5.00 0.5 0
C2089 RG1 N456 0.00666 77.5 5.00 0.5 0
C2090 RG1 N1650 0.07054 91.8 14.11 0.5 0
C2091 RG1 N2160 0.06098 93.7 12.20 0.5 0
C2092 RG1 N2492 0.02845 97.0 5.69 0.5 0
C2093 RG1 N1471 0.11042 91.5 22.08 0.5 0
C2094 RG1 N3823 0.22498 95.2 45.00 0.5 0
C2095 RG1 N4102 0.01782 82.1 5.00 0.5 0
C2096 RG1 N2561 0.03457 94.2 6.91 0.5 0
C2097 RG1 N3005 0.04831 90.6 9.66 0.5 0
C2098 RG1 N3601 0.10713 92.9 21.43 0.5 0
C2099 RG1 N152 0.01071 91.1 5.00 0.5 0
C2100 RG1 N1380 0.04185 91.1 8.37 0.5 0
C2101 RG1 N1177 0.00657 74.5 5.00 0.5 0
C2102 RG1 N3147 0.10057 91.6 20.11 0.5 0
C2103 RG1 N4245 0.19209 77.6 38.42 0.5 0
C2104 RG1 N4093 0.05024 84.8 10.05 0.5 0
C2105 RG1 N1892 0.18896 88.4 37.79 0.5 0
C2106 RG1 N3190 0.03513 97.7 7.03 0.5 0
C2107 RG1 N4261 0.20283 97.1 40.57 0.5 0
C2108 RG1 N100 0.01973 90.9 5.00 0.5 0
C2109 RG1 N1995 0.03809 96.1 7.62 0.5 0
C2110 RG1 N2116 0.09793 90.4 19.59 0.5 0
C2111 RG1 N3426 0.07908 94.2 15.82 0.5 0
C2112 RG1 N1517 0.09605 89.7 19.21 0.5 0
C2113 RG1 N3246 0.03918 91.0 7.84 0.5 0
C2114 RG1 N3767 0.06549 96.1 13.10 0.5 0
C2115 RG1 N2460 0.04388 93.4 8.78 0.5 0
C2116 RG1 N3263 0.10605 88.9 21.21 0.5 0
C2117 RG1 N3068 0.03416 89.6 6.83 0.5 0
C2118 RG1 N1946 0.07974 93.3 15.95 0.5 0
C2119 RG1 N2642 0.30079 74.9 60.16 0.5 0
C2120 RG1 N3736 0.02603 83.6 5.21 0.5 0
C2121 RG1 N2112 0.01749 86.3 5.00 0.5 0
C2122 RG1 N1359 0.02912 87.0 5.82 0.5 0
C2123 RG1 N2795 0.07659 85.6 15.32 0.5 0
C2124 RG1 N4325 0.01741 83.7 5.00 0.5 0
C2125 RG1 N3663 0.14448 96.1 28.90 0.5 0
C2126 RG1 N2271 0.05022 91.0 10.04 0.5 0
C2127 RG1 N3270 0.07980 90.5 15.96 0.5 0
C2128 RG1 N4185 0.20009 84.5 40.02 0.5 0
C2129 RG1 N847 0.09212 92.9 18.42 0.5 0
C2130 RG1 N3610 0.02352 84.8 5.00 0.5 0
C2131 RG1 N131 0.06783 94.9 13.57 0.5 0
C2132 RG1 N2627 0.04781 91.1 9.56 0.5 0
C2133 RG1 N1278 0.07671 89.8 15.34 0.5 0
C2134 RG1 N323 0.00488 77.8 5.00 0.5 0
C2135 RG1 N1379 0.06183 89.1 12.37 0.5 0
C2136 RG1 N4096 0.17983 72.0 35.97 0.5 0
C2137 RG1 N282 0.04055 85.5 8.11 0.5 0
C2138 RG1 N1830 0.23146 92.4 46.29 0.5 0
C2139 RG1 N3260 0.03606 87.5 7.21 0.5 0
C2140 RG1 N552 0.07724 87.7 15.45 0.5 0
C2141 RG1 N4050 0.04488 88.3 8.98 0.5 0
C2142 RG1 N2930 0.07991 84.6 15.98 0.5 0
C2143 RG1 N104 0.06851 98.5 13.70 0.5 0
C2144 RG1 N1820 0.02793 93.8 5.59 0.5 0
C2145 RG1 N3690 0.04220 90.5 8.44 0.5 0
C2146 RG1 N519 0.28217 96.3 56.43 0.5 0
C2147 RG1 N270 0.03616 88.5 7.23 0.5 0
C2148 RG1 N796 0.00757 78.4 5.00 0.5 0
C2149 RG1 N1098 0.31837 96.2 63.67 0.5 0
C2150 RG1 N2123 0.05433 90.1 10.87 0.5 0
C2151 RG1 N4269 0.06693 82.9 13.39 0.5 0
C2152 RG1 N2295 0.01463 86.8 5.00 0.5 0
C2153 RG1 N3923 0.07311 89.4 14.62 0.5 0
C2154 RG1 N3832 0.13387 70.1 26.77 0.5 0
C2155 RG1 N1001 0.02167 92.0 5.00 0.5 0
C2156 RG1 N1156 0.05422 92.0 10.84 0.5 0
C2157 RG1 N1638 0.11304 89.0 22.61 0.5 0
C2158 RG1 N1612 0.06976 86.5 13.95 0.5 0
C2159 RG1 N3440 0.00559 82.8 5.00 0.5 0
C2160 RG1 N2680 0.04484 95.8 8.97 0.5 0
C2161 RG1 N3422 0.00607 81.4 5.00 0.5 0
C2162 RG1 N1233 0.05531 76.2 11.06 0.5 0
C2163 RG1 N2266 0.01716 82.7 5.00 0.5 0
C2164 RG1 N896 0.06181 95.6 12.36 0.5 0
C2165 RG1 N3 0.02816 87.5 5.63 0.5 0
C2166 RG1 N3110 0.04421 97.1 8.84 0.5 0
C2167 RG1 N4178 0.10904 92.6 21.81 0.5 0
C2168 RG1 N2143 0.15720 76.9 31.44 0.5 0
C2169 RG1 N3284 0.01477 95.8 5.00 0.5 0
C2170 RG1 N946 0.03445 86.3 6.89 0.5 0
C2171 RG1 N2047 0.02518 90.0 5.04 0.5 0
C2172 RG1 N4303 0.08500 85.8 17.00 0.5 0
C2173 RG1 N1779 0.04272 81.5 8.54 0.5 0
C2174 RG1 N1621 0.02599 92.5 5.20 0.5 0
C2175 RG1 N2767 0.02219 94.1 5.00 0.5 0
C2176 RG1 N2350 0.01563 89.9 5.00 0.5 0
C2177 RG1 N2857 0.05833 84.6 11.67 0.5 0
C2178 RG1 N299 0.11464 94.5 22.93 0.5 0
C2179 RG1 N4134 0.02372 90.6 5.00 0.5 0
C2180 RG1 N2223 0.13673 97.9 27.35 0.5 0
C2181 RG1 N3575 0.04980 87.6 9.96 0.5 0
C2182 RG1 N950 0.05841 85.8 11.68 0.5 0
C2183 RG1 N1618 0.04707 90.1 9.41 0.5 0
C2184 RG1 N1558 0.02049 92.8 5.00 0.5 0
C2185 RG1 N2937 0.05202 95.7 10.40 0.5 0
C2186 RG1 N1611 0.03550 90.3 7.10 0.5 0
C2187 RG1 N725 0.06056 87.6 12.11 0.5 0
C2188 RG1 N4066 0.05175 87.1 10.35 0.5 0
C2189 RG1 N4079 0.06343 91.5 12.69 0.5 0
C2190 RG1 N2142 0.02691 85.8 5.38 0.5 0
C2191 RG1 N2874 0.09167 80.4 18.33 0.5 0
C2192 RG1 N2262 0.18848 94.8 37.70 0.5 0
C2193 RG1 N4355 0.02773 85.6 5.55 0.5 0
C2194 RG1 N4154 0.05396 89.1 10.79 0.5 0
C2195 RG1 N2578 0.06173 88.2 12.35 0.5 0
C2196 RG1 N2397 0.03505 87.4 7.01 0.5 0
C2197 RG1 N3865 0.07717 90.9 15.43 0.5 0
C2198 RG1 N29 0.15241 88.3 30.48 0.5 0
C2199 RG1 N2194 0.06346 80.4 12.69 0.5 0
C2200 RG1 N1132 0.04872 91.0 9.74 0.5 0
C2201 RG1 N686 0.18732 61.1 37.46 0.5 0
C2202 RG1 N2402 0.03965 91.1 7.93 0.5 0
C2203 RG1 N4191 0.04379 89.0 8.76 0.5 0
C2204 RG1 N2108 0.07283 66.1 14.57 0.5 0
C2205 RG1 N2443 0.05978 93.3 11.96 0.5 0
C2206 RG1 N1780 0.12794 85.6 25.59 0.5 0
C2207 RG1 N1872 0.01725 85.0 5.00 0.5 0
C2208 RG1 N799 0.05157 91.8 10.31 0.5 0
C2209 RG1 N1606 0.03890 90.0 7.78 0.5 0
C2210 RG1 N2528 0.01211 82.9 5.00 0.5 0
C2211 RG1 N2749 0.03790 89.1 7.58 0.5 0
C2212 RG1 N806 0.02564 85.8 5.13 0.5 0
C2213 RG1 N3729 0.04499 89.0 9.00 0.5 0
C2214 RG1 N68 0.03614 89.7 7.23 0.5 0
C2215 RG1 N795 0.06821 91.7 13.64 0.5 0
C2216 RG1 N2828 0.04358 85.8 8.72 0.5 0
C2217 RG1 N1074 0.24460 80.5 48.92 0.5 0
C2218 RG1 N929 0.03086 85.4 6.17 0.5 0
C2219 RG1 N562 0.09620 94.0 19.24 0.5 0
C2220 RG1 N595 0.05046 83.8 10.09 0.5 0
C2221 RG1 N1428 0.02829 83.1 5.66 0.5 0
C2222 RG1 N2629 0.04565 88.2 9.13 0.5 0
C2223 RG1 N3304 0.03954 88.3 7.91 0.5 0
C2224 RG1 N3785 0.01016 88.9 5.00 0.5 0
C2225 RG1 N735 0.07230 93.1 14.46 0.5 0
C2226 RG1 N4273 0.08610 92.5 17.22 0.5 0
C2227 RG1 N2898 0.07636 85.3 15.27 0.5 0
C2228 RG1 N3368 0.06835 97.1 13.67 0.5 0
C2229 RG1 N2148 0.04005 89.2 8.01 0.5 0
C2230 RG1 N569 0.05714 90.0 11.43 0.5 0
C2231 RG1 N4300 0.16532 97.0 33.06 0.5 0
C2232 RG1 N3861 0.02992 83.8 5.98 0.5 0
C2233 RG1 N2812 0.05469 95.2 10.94 0.5 0
C2234 RG1 N3293 0.05335 92.8 10.67 0.5 0
C2235 RG1 N244 0.02459 94.6 5.00 0.5 0
C2236 RG1 N2010 0.04353 82.2 8.71 0.5 0
C2237 RG1 N3119 0.04413 87.3 8.83 0.5 0
C2238 RG1 N464 0.01094 82.3 5.00 0.5 0
C2239 RG1 N4071 0.02668 85.0 5.34 0.5 0
C2240 RG1 N2319 0.04798 88.7 9.60 0.5 0
C2241 RG1 N252 0.00539 82.8 5.00 0.5 0
C2242 RG1 N983 0.03039 83.3 6.08 0.5 0
C2243 RG1 N3471 0.05653 92.4 11.31 0.5 0
C2244 RG1 N818 0.00759 86.1 5.00 0.5 0
C2245 RG1 N2932 0.09922 93.1 19.84 0.5 0
C2246 RG1 N472 0.03037 79.1 6.07 0.5 0
C2247 RG1 N2348 0.03861 85.6 7.72 0.5 0
C2248 RG1 N635 0.10252 95.9 20.50 0.5 0
C2249 RG1 N2706 0.00814 86.2 5.00 0.5 0
C2250 RG1 N1341 0.01015 86.5 5.00 0.5 0
C2251 RG1 N3115 0.03363 93.5 6.73 0.5 0
C2252 RG1 N655 0.07198 93.7 14.40 0.5 0
C2253 RG1 N794 0.05518 85.7 11.04 0.5 0
C2254 RG1 N3773 0.01472 86.7 5.00 0.5 0
C2255 RG1 N343 0.02148 91.8 5.00 0.5 0
C2256 RG1 N451 0.01003 86.5 5.00 0.5 0
C2257 RG1 N2916 0.04988 92.5 9.98 0.5 0
C2258 RG1 N3936 0.06831 89.0 13.66 0.5 0
C2259 RG1 N2691 0.09318 96.0 18.64 0.5 0
C2260 RG1 N2661 0.06611 85.9 13.22 0.5 0
C2261 RG1 N1268 0.05015 87.5 10.03 0.5 0
C2262 RG1 N1094 0.01364 95.2 5.00 0.5 0
C2263 RG1 N382 0.01465 88.0 5.00 0.5 0
C2264 RG1 N1270 0.02413 86.8 5.00 0.5 0
C2265 RG1 N3847 0.00753 90.1 5.00 0.5 0
C2266 RG1 N2154 0.05894 97.1 11.79 0.5 0
C2267 RG1 N1569 0.01738 95.1 5.00 0.5 0
C2268 RG1 N2564 0.07415 92.4 14.83 0.5 0
C2269 RG1 N878 0.15644 98.5 31.29 0.5 0
C2270 RG1 N1081 0.04409 95.0 8.82 0.5 0
C2271 RG1 N2484 0.01788 77.3 5.00 0.5 0
C2272 RG1 N3623 0.01869 53.6 5.00 0.5 0
C2273 RG1 N2693 0.05148 89.0 10.30 0.5 0
C2274 RG1 N1030 0.01604 93.5 5.00 0.5 0
C2275 RG1 N3011 0.27588 95.8 55.18 0.5 0
C2276 RG1 N4030 0.01885 89.8 5.00 0.5 0
C2277 RG1 N3401 0.03586 95.2 7.17 0.5 0
C2278 RG1 N3797 0.02768 85.5 5.54 0.5 0
C2279 RG1 N933 0.01622 94.5 5.00 0.5 0
C2280 RG1 N138 0.07909 98.1 15.82 0.5 0
C2281 RG1 N4014 0.03887 97.3 7.77 0.5 0
C2282 RG1 N3464 0.01225 95.2 5.00 0.5 0
C2283 RG1 N753 0.01707 90.6 5.00 0.5 0
C2284 RG1 N3483 0.03500 85.5 7.00 0.5 0
C2285 RG1 N3622 0.00537 85.0 5.00 0.5 0
C2286 RG1 N1187 0.18896 98.4 37.79 0.5 0
C2287 RG1 N1696 0.02004 94.0 5.00 0.5 0
C2288 RG1 N3970 0.06767 96.8 13.53 0.5 0
C2289 RG1 N2562 0.04898 94.3 9.80 0.5 0
C2290 RG1 N3920 0.01628 90.5 5.00 0.5 0
C2291 RG1 N3459 0.00812 86.2 5.00 0.5 0
C2292 RG1 N2144 0.01720 90.0 5.00 0.5 0
C2293 RG1 N2000 0.05187 93.1 10.37 0.5 0
C2294 RG1 N3086 0.02577 92.5 5.15 0.5 0
C2295 RG1 N1631 0.01592 92.3 5.00 0.5 0
C2296 RG1 N3415 0.02201 91.5 5.00 0.5 0
C2297 RG1 N311 0.18065 94.4 36.13 0.5 0
C2298 RG1 N568 0.03606 94.4 7.21 0.5 0
C2299 RG1 N4289 0.04464 93.0 8.93 0.5 0
C2300 RG1 N1456 0.02270 91.0 5.00 0.5 0
C2301 RG1 N1887 0.01876 91.8 5.00 0.5 0
C2302 RG1 N2721 0.00336 84.2 5.00 0.5 0
C2303 RG1 N2345 0.00884 96.2 5.00 0.5 0
C2304 RG1 N116 0.01153 94.3 5.00 0.5 0
C2305 RG1 N3220 0.04449 94.8 8.90 0.5 0
C2306 RG1 N134 0.02356 89.7 5.00 0.5 0
C2307 RG1 N767 0.06699 91.3 13.40 0.5 0
C2308 RG1 N4140 0.07780 91.1 15.56 0.5 0
C2309 RG1 N320 0.04988 85.3 9.98 0.5 0
C2310 RG1 N830 0.02496 95.3 5.00 0.5 0
C2311 RG1 N3229 0.06274 90.2 12.55 0.5 0
C2312 RG1 N1877 0.03352 94.2 6.70 0.5 0
C2313 RG1 N4339 0.02944 92.8 5.89 0.5 0
C2314 RG1 N894 0.01254 98.4 5.00 0.5 0
C2315 RG1 N1451 0.03112 90.0 6.22 0.5 0
C2316 RG1 N2069 0.06370 87.7 12.74 0.5 0
C2317 RG1 N233 0.03034 88.5 6.07 0.5 0
C2318 RG1 N1018 0.01707 92.5 5.00 0.5 0
C2319 RG1 N3125 0.02536 93.4 5.07 0.5 0
C2320 RG1 N3835 0.03050 85.6 6.10 0.5 0
C2321 RG1 N3355 0.01662 86.1 5.00 0.5 0
C2322 RG1 N1970 0.00403 85.0 5.00 0.5 0
C2323 RG1 N3283 0.01174 87.7 5.00 0.5 0

[SUBAREAS]
;;Sub Nimp Nperv Simp Sperv %Zero RouteTo
C0 0.015 0.15 0.5 3.0 25 OUTLET
C1 0.015 0.15 0.5 3.0 25 OUTLET
C2 0.015 0.15 0.5 3.0 25 OUTLET
C3 0.015 0.15 0.5 3.0 25 OUTLET
C4 0.015 0.15 0.5 3.0 25 OUTLET
C5 0.015 0.15 0.5 3.0 25 OUTLET
C6 0.015 0.15 0.5 3.0 25 OUTLET
C7 0.015 0.15 0.5 3.0 25 OUTLET
C8 0.015 0.15 0.5 3.0 25 OUTLET
C9 0.015 0.15 0.5 3.0 25 OUTLET
C10 0.015 0.15 0.5 3.0 25 OUTLET
C11 0.015 0.15 0.5 3.0 25 OUTLET
C12 0.015 0.15 0.5 3.0 25 OUTLET
C13 0.015 0.15 0.5 3.0 25 OUTLET
C14 0.015 0.15 0.5 3.0 25 OUTLET
C15 0.015 0.15 0.5 3.0 25 OUTLET
C16 0.015 0.15 0.5 3.0 25 OUTLET
C17 0.015 0.15 0.5 3.0 25 OUTLET
C18 0.015 0.15 0.5 3.0 25 OUTLET
C19 0.015 0.15 0.5 3.0 25 OUTLET
C20 0.015 0.15 0.5 3.0 25 OUTLET
C21 0.015 0.15 0.5 3.0 25 OUTLET
C22 0.015 0.15 0.5 3.0 25 OUTLET
C23 0.015 0.15 0.5 3.0 25 OUTLET
C24 0.015 0.15 0.5 3.0 25 OUTLET
C25 0.015 0.15 0.5 3.0 25 OUTLET
C26 0.015 0.15 0.5 3.0 25 OUTLET
C27 0.015 0.15 0.5 3.0 25 OUTLET
C28 0.015 0.15 0.5 3.0 25 OUTLET
C29 0.015 0.15 0.5 3.0 25 OUTLET
C30 0.015 0.15 0.5 3.0 25 OUTLET
C31 0.015 0.15 0.5 3.0 25 OUTLET
C32 0.015 0.15 0.5 3.0 25 OUTLET
C33 0.015 0.15 0.5 3.0 25 OUTLET
C34 0.015 0.15 0.5 3.0 25 OUTLET
C35 0.015 0.15 0.5 3.0 25 OUTLET
C36 0.015 0.15 0.5 3.0 25 OUTLET
C37 0.015 0.15 0.5 3.0 25 OUTLET
C38 0.015 0.15 0.5 3.0 25 OUTLET
C39 0.015 0.15 0.5 3.0 25 OUTLET
C40 0.015 0.15 0.5 3.0 25 OUTLET
C41 0.015 0.15 0.5 3.0 25 OUTLET
C42 0.015 0.15 0.5 3.0 25 OUTLET
C43 0.015 0.15 0.5 3.0 25 OUTLET
C44 0.015 0.15 0.5 3.0 25 OUTLET
C45 0.015 0.15 0.5 3.0 25 OUTLET
C46 0.015 0.15 0.5 3.0 25 OUTLET
C47 0.015 0.15 0.5 3.0 25 OUTLET
C48 0.015 0.15 0.5 3.0 25 OUTLET
C49 0.015 0.15 0.5 3.0 25 OUTLET
C50 0.015 0.15 0.5 3.0 25 OUTLET
C51 0.015 0.15 0.5 3.0 25 OUTLET
C52 0.015 0.15 0.5 3.0 25 OUTLET
C53 0.015 0.15 0.5 3.0 25 OUTLET
C54 0.015 0.15 0.5 3.0 25 OUTLET
C55 0.015 0.15 0.5 3.0 25 OUTLET
C56 0.015 0.15 0.5 3.0 25 OUTLET
C57 0.015 0.15 0.5 3.0 25 OUTLET
C58 0.015 0.15 0.5 3.0 25 OUTLET
C59 0.015 0.15 0.5 3.0 25 OUTLET
C60 0.015 0.15 0.5 3.0 25 OUTLET
C61 0.015 0.15 0.5 3.0 25 OUTLET
C62 0.015 0.15 0.5 3.0 25 OUTLET
C63 0.015 0.15 0.5 3.0 25 OUTLET
C64 0.015 0.15 0.5 3.0 25 OUTLET
C65 0.015 0.15 0.5 3.0 25 OUTLET
C66 0.015 0.15 0.5 3.0 25 OUTLET
C67 0.015 0.15 0.5 3.0 25 OUTLET
C68 0.015 0.15 0.5 3.0 25 OUTLET
C69 0.015 0.15 0.5 3.0 25 OUTLET
C70 0.015 0.15 0.5 3.0 25 OUTLET
C71 0.015 0.15 0.5 3.0 25 OUTLET
C72 0.015 0.15 0.5 3.0 25 OUTLET
C73 0.015 0.15 0.5 3.0 25 OUTLET
C74 0.015 0.15 0.5 3.0 25 OUTLET
C75 0.015 0.15 0.5 3.0 25 OUTLET
C76 0.015 0.15 0.5 3.0 25 OUTLET
C77 0.015 0.15 0.5 3.0 25 OUTLET
C78 0.015 0.15 0.5 3.0 25 OUTLET
C79 0.015 0.15 0.5 3.0 25 OUTLET
C80 0.015 0.15 0.5 3.0 25 OUTLET
C81 0.015 0.15 0.5 3.0 25 OUTLET
C82 0.015 0.15 0.5 3.0 25 OUTLET
C83 0.015 0.15 0.5 3.0 25 OUTLET
C84 0.015 0.15 0.5 3.0 25 OUTLET
C85 0.015 0.15 0.5 3.0 25 OUTLET
C86 0.015 0.15 0.5 3.0 25 OUTLET
C87 0.015 0.15 0.5 3.0 25 OUTLET
C88 0.015 0.15 0.5 3.0 25 OUTLET
C89 0.015 0.15 0.5 3.0 25 OUTLET
C90 0.015 0.15 0.5 3.0 25 OUTLET
C91 0.015 0.15 0.5 3.0 25 OUTLET
C92 0.015 0.15 0.5 3.0 25 OUTLET
C93 0.015 0.15 0.5 3.0 25 OUTLET
C94 0.015 0.15 0.5 3.0 25 OUTLET
C95 0.015 0.15 0.5 3.0 25 OUTLET
C96 0.015 0.15 0.5 3.0 25 OUTLET
C97 0.015 0.15 0.5 3.0 25 OUTLET
C98 0.015 0.15 0.5 3.0 25 OUTLET
C99 0.015 0.15 0.5 3.0 25 OUTLET
C100 0.015 0.15 0.5 3.0 25 OUTLET
C101 0.015 0.15 0.5 3.0 25 OUTLET
C102 0.015 0.15 0.5 3.0 25 OUTLET
C103 0.015 0.15 0.5 3.0 25 OUTLET
C104 0.015 0.15 0.5 3.0 25 OUTLET
C105 0.015 0.15 0.5 3.0 25 OUTLET
C106 0.015 0.15 0.5 3.0 25 OUTLET
C107 0.015 0.15 0.5 3.0 25 OUTLET
C108 0.015 0.15 0.5 3.0 25 OUTLET
C109 0.015 0.15 0.5 3.0 25 OUTLET
C110 0.015 0.15 0.5 3.0 25 OUTLET
C111 0.015 0.15 0.5 3.0 25 OUTLET
C112 0.015 0.15 0.5 3.0 25 OUTLET
C113 0.015 0.15 0.5 3.0 25 OUTLET
C114 0.015 0.15 0.5 3.0 25 OUTLET
C115 0.015 0.15 0.5 3.0 25 OUTLET
C116 0.015 0.15 0.5 3.0 25 OUTLET
C117 0.015 0.15 0.5 3.0 25 OUTLET
C118 0.015 0.15 0.5 3.0 25 OUTLET
C119 0.015 0.15 0.5 3.0 25 OUTLET
C120 0.015 0.15 0.5 3.0 25 OUTLET
C121 0.015 0.15 0.5 3.0 25 OUTLET
C122 0.015 0.15 0.5 3.0 25 OUTLET
C123 0.015 0.15 0.5 3.0 25 OUTLET
C124 0.015 0.15 0.5 3.0 25 OUTLET
C125 0.015 0.15 0.5 3.0 25 OUTLET
C126 0.015 0.15 0.5 3.0 25 OUTLET
C127 0.015 0.15 0.5 3.0 25 OUTLET
C128 0.015 0.15 0.5 3.0 25 OUTLET
C129 0.015 0.15 0.5 3.0 25 OUTLET
C130 0.015 0.15 0.5 3.0 25 OUTLET
C131 0.015 0.15 0.5 3.0 25 OUTLET
C132 0.015 0.15 0.5 3.0 25 OUTLET
C133 0.015 0.15 0.5 3.0 25 OUTLET
C134 0.015 0.15 0.5 3.0 25 OUTLET
C135 0.015 0.15 0.5 3.0 25 OUTLET
C136 0.015 0.15 0.5 3.0 25 OUTLET
C137 0.015 0.15 0.5 3.0 25 OUTLET
C138 0.015 0.15 0.5 3.0 25 OUTLET
C139 0.015 0.15 0.5 3.0 25 OUTLET
C140 0.015 0.15 0.5 3.0 25 OUTLET
C141 0.015 0.15 0.5 3.0 25 OUTLET
C142 0.015 0.15 0.5 3.0 25 OUTLET
C143 0.015 0.15 0.5 3.0 25 OUTLET
C144 0.015 0.15 0.5 3.0 25 OUTLET
C145 0.015 0.15 0.5 3.0 25 OUTLET
C146 0.015 0.15 0.5 3.0 25 OUTLET
C147 0.015 0.15 0.5 3.0 25 OUTLET
C148 0.015 0.15 0.5 3.0 25 OUTLET
C149 0.015 0.15 0.5 3.0 25 OUTLET
C150 0.015 0.15 0.5 3.0 25 OUTLET
C151 0.015 0.15 0.5 3.0 25 OUTLET
C152 0.015 0.15 0.5 3.0 25 OUTLET
C153 0.015 0.15 0.5 3.0 25 OUTLET
C154 0.015 0.15 0.5 3.0 25 OUTLET
C155 0.015 0.15 0.5 3.0 25 OUTLET
C156 0.015 0.15 0.5 3.0 25 OUTLET
C157 0.015 0.15 0.5 3.0 25 OUTLET
C158 0.015 0.15 0.5 3.0 25 OUTLET
C159 0.015 0.15 0.5 3.0 25 OUTLET
C160 0.015 0.15 0.5 3.0 25 OUTLET
C161 0.015 0.15 0.5 3.0 25 OUTLET
C162 0.015 0.15 0.5 3.0 25 OUTLET
C163 0.015 0.15 0.5 3.0 25 OUTLET
C164 0.015 0.15 0.5 3.0 25 OUTLET
C165 0.015 0.15 0.5 3.0 25 OUTLET
C166 0.015 0.15 0.5 3.0 25 OUTLET
C167 0.015 0.15 0.5 3.0 25 OUTLET
C168 0.015 0.15 0.5 3.0 25 OUTLET
C169 0.015 0.15 0.5 3.0 25 OUTLET
C170 0.015 0.15 0.5 3.0 25 OUTLET
C171 0.015 0.15 0.5 3.0 25 OUTLET
C172 0.015 0.15 0.5 3.0 25 OUTLET
C173 0.015 0.15 0.5 3.0 25 OUTLET
C174 0.015 0.15 0.5 3.0 25 OUTLET
C175 0.015 0.15 0.5 3.0 25 OUTLET
C176 0.015 0.15 0.5 3.0 25 OUTLET
C177 0.015 0.15 0.5 3.0 25 OUTLET
C178 0.015 0.15 0.5 3.0 25 OUTLET
C179 0.015 0.15 0.5 3.0 25 OUTLET
C180 0.015 0.15 0.5 3.0 25 OUTLET
C181 0.015 0.15 0.5 3.0 25 OUTLET
C182 0.015 0.15 0.5 3.0 25 OUTLET
C183 0.015 0.15 0.5 3.0 25 OUTLET
C184 0.015 0.15 0.5 3.0 25 OUTLET
C185 0.015 0.15 0.5 3.0 25 OUTLET
C186 0.015 0.15 0.5 3.0 25 OUTLET
C187 0.015 0.15 0.5 3.0 25 OUTLET
C188 0.015 0.15 0.5 3.0 25 OUTLET
C189 0.015 0.15 0.5 3.0 25 OUTLET
C190 0.015 0.15 0.5 3.0 25 OUTLET
C191 0.015 0.15 0.5 3.0 25 OUTLET
C192 0.015 0.15 0.5 3.0 25 OUTLET
C193 0.015 0.15 0.5 3.0 25 OUTLET
C194 0.015 0.15 0.5 3.0 25 OUTLET
C195 0.015 0.15 0.5 3.0 25 OUTLET
C196 0.015 0.15 0.5 3.0 25 OUTLET
C197 0.015 0.15 0.5 3.0 25 OUTLET
C198 0.015 0.15 0.5 3.0 25 OUTLET
C199 0.015 0.15 0.5 3.0 25 OUTLET
C200 0.015 0.15 0.5 3.0 25 OUTLET
C201 0.015 0.15 0.5 3.0 25 OUTLET
C202 0.015 0.15 0.5 3.0 25 OUTLET
C203 0.015 0.15 0.5 3.0 25 OUTLET
C204 0.015 0.15 0.5 3.0 25 OUTLET
C205 0.015 0.15 0.5 3.0 25 OUTLET
C206 0.015 0.15 0.5 3.0 25 OUTLET
C207 0.015 0.15 0.5 3.0 25 OUTLET
C208 0.015 0.15 0.5 3.0 25 OUTLET
C209 0.015 0.15 0.5 3.0 25 OUTLET
C210 0.015 0.15 0.5 3.0 25 OUTLET
C211 0.015 0.15 0.5 3.0 25 OUTLET
C212 0.015 0.15 0.5 3.0 25 OUTLET
C213 0.015 0.15 0.5 3.0 25 OUTLET
C214 0.015 0.15 0.5 3.0 25 OUTLET
C215 0.015 0.15 0.5 3.0 25 OUTLET
C216 0.015 0.15 0.5 3.0 25 OUTLET
C217 0.015 0.15 0.5 3.0 25 OUTLET
C218 0.015 0.15 0.5 3.0 25 OUTLET
C219 0.015 0.15 0.5 3.0 25 OUTLET
C220 0.015 0.15 0.5 3.0 25 OUTLET
C221 0.015 0.15 0.5 3.0 25 OUTLET
C222 0.015 0.15 0.5 3.0 25 OUTLET
C223 0.015 0.15 0.5 3.0 25 OUTLET
C224 0.015 0.15 0.5 3.0 25 OUTLET
C225 0.015 0.15 0.5 3.0 25 OUTLET
C226 0.015 0.15 0.5 3.0 25 OUTLET
C227 0.015 0.15 0.5 3.0 25 OUTLET
C228 0.015 0.15 0.5 3.0 25 OUTLET
C229 0.015 0.15 0.5 3.0 25 OUTLET
C230 0.015 0.15 0.5 3.0 25 OUTLET
C231 0.015 0.15 0.5 3.0 25 OUTLET
C232 0.015 0.15 0.5 3.0 25 OUTLET
C233 0.015 0.15 0.5 3.0 25 OUTLET
C234 0.015 0.15 0.5 3.0 25 OUTLET
C235 0.015 0.15 0.5 3.0 25 OUTLET
C236 0.015 0.15 0.5 3.0 25 OUTLET
C237 0.015 0.15 0.5 3.0 25 OUTLET
C238 0.015 0.15 0.5 3.0 25 OUTLET
C239 0.015 0.15 0.5 3.0 25 OUTLET
C240 0.015 0.15 0.5 3.0 25 OUTLET
C241 0.015 0.15 0.5 3.0 25 OUTLET
C242 0.015 0.15 0.5 3.0 25 OUTLET
C243 0.015 0.15 0.5 3.0 25 OUTLET
C244 0.015 0.15 0.5 3.0 25 OUTLET
C245 0.015 0.15 0.5 3.0 25 OUTLET
C246 0.015 0.15 0.5 3.0 25 OUTLET
C247 0.015 0.15 0.5 3.0 25 OUTLET
C248 0.015 0.15 0.5 3.0 25 OUTLET
C249 0.015 0.15 0.5 3.0 25 OUTLET
C250 0.015 0.15 0.5 3.0 25 OUTLET
C251 0.015 0.15 0.5 3.0 25 OUTLET
C252 0.015 0.15 0.5 3.0 25 OUTLET
C253 0.015 0.15 0.5 3.0 25 OUTLET
C254 0.015 0.15 0.5 3.0 25 OUTLET
C255 0.015 0.15 0.5 3.0 25 OUTLET
C256 0.015 0.15 0.5 3.0 25 OUTLET
C257 0.015 0.15 0.5 3.0 25 OUTLET
C258 0.015 0.15 0.5 3.0 25 OUTLET
C259 0.015 0.15 0.5 3.0 25 OUTLET
C260 0.015 0.15 0.5 3.0 25 OUTLET
C261 0.015 0.15 0.5 3.0 25 OUTLET
C262 0.015 0.15 0.5 3.0 25 OUTLET
C263 0.015 0.15 0.5 3.0 25 OUTLET
C264 0.015 0.15 0.5 3.0 25 OUTLET
C265 0.015 0.15 0.5 3.0 25 OUTLET
C266 0.015 0.15 0.5 3.0 25 OUTLET
C267 0.015 0.15 0.5 3.0 25 OUTLET
C268 0.015 0.15 0.5 3.0 25 OUTLET
C269 0.015 0.15 0.5 3.0 25 OUTLET
C270 0.015 0.15 0.5 3.0 25 OUTLET
C271 0.015 0.15 0.5 3.0 25 OUTLET
C272 0.015 0.15 0.5 3.0 25 OUTLET
C273 0.015 0.15 0.5 3.0 25 OUTLET
C274 0.015 0.15 0.5 3.0 25 OUTLET
C275 0.015 0.15 0.5 3.0 25 OUTLET
C276 0.015 0.15 0.5 3.0 25 OUTLET
C277 0.015 0.15 0.5 3.0 25 OUTLET
C278 0.015 0.15 0.5 3.0 25 OUTLET
C279 0.015 0.15 0.5 3.0 25 OUTLET
C280 0.015 0.15 0.5 3.0 25 OUTLET
C281 0.015 0.15 0.5 3.0 25 OUTLET
C282 0.015 0.15 0.5 3.0 25 OUTLET
C283 0.015 0.15 0.5 3.0 25 OUTLET
C284 0.015 0.15 0.5 3.0 25 OUTLET
C285 0.015 0.15 0.5 3.0 25 OUTLET
C286 0.015 0.15 0.5 3.0 25 OUTLET
C287 0.015 0.15 0.5 3.0 25 OUTLET
C288 0.015 0.15 0.5 3.0 25 OUTLET
C289 0.015 0.15 0.5 3.0 25 OUTLET
C290 0.015 0.15 0.5 3.0 25 OUTLET
C291 0.015 0.15 0.5 3.0 25 OUTLET
C292 0.015 0.15 0.5 3.0 25 OUTLET
C293 0.015 0.15 0.5 3.0 25 OUTLET
C294 0.015 0.15 0.5 3.0 25 OUTLET
C295 0.015 0.15 0.5 3.0 25 OUTLET
C296 0.015 0.15 0.5 3.0 25 OUTLET
C297 0.015 0.15 0.5 3.0 25 OUTLET
C298 0.015 0.15 0.5 3.0 25 OUTLET
C299 0.015 0.15 0.5 3.0 25 OUTLET
C300 0.015 0.15 0.5 3.0 25 OUTLET
C301 0.015 0.15 0.5 3.0 25 OUTLET
C302 0.015 0.15 0.5 3.0 25 OUTLET
C303 0.015 0.15 0.5 3.0 25 OUTLET
C304 0.015 0.15 0.5 3.0 25 OUTLET
C305 0.015 0.15 0.5 3.0 25 OUTLET
C306 0.015 0.15 0.5 3.0 25 OUTLET
C307 0.015 0.15 0.5 3.0 25 OUTLET
C308 0.015 0.15 0.5 3.0 25 OUTLET
C309 0.015 0.15 0.5 3.0 25 OUTLET
C310 0.015 0.15 0.5 3.0 25 OUTLET
C311 0.015 0.15 0.5 3.0 25 OUTLET
C312 0.015 0.15 0.5 3.0 25 OUTLET
C313 0.015 0.15 0.5 3.0 25 OUTLET
C314 0.015 0.15 0.5 3.0 25 OUTLET
C315 0.015 0.15 0.5 3.0 25 OUTLET
C316 0.015 0.15 0.5 3.0 25 OUTLET
C317 0.015 0.15 0.5 3.0 25 OUTLET
C318 0.015 0.15 0.5 3.0 25 OUTLET
C319 0.015 0.15 0.5 3.0 25 OUTLET
C320 0.015 0.15 0.5 3.0 25 OUTLET
C321 0.015 0.15 0.5 3.0 25 OUTLET
C322 0.015 0.15 0.5 3.0 25 OUTLET
C323 0.015 0.15 0.5 3.0 25 OUTLET
C324 0.015 0.15 0.5 3.0 25 OUTLET
C325 0.015 0.15 0.5 3.0 25 OUTLET
C326 0.015 0.15 0.5 3.0 25 OUTLET
C327 0.015 0.15 0.5 3.0 25 OUTLET
C328 0.015 0.15 0.5 3.0 25 OUTLET
C329 0.015 0.15 0.5 3.0 25 OUTLET
C330 0.015 0.15 0.5 3.0 25 OUTLET
C331 0.015 0.15 0.5 3.0 25 OUTLET
C332 0.015 0.15 0.5 3.0 25 OUTLET
C333 0.015 0.15 0.5 3.0 25 OUTLET
C334 0.015 0.15 0.5 3.0 25 OUTLET
C335 0.015 0.15 0.5 3.0 25 OUTLET
C336 0.015 0.15 0.5 3.0 25 OUTLET
C337 0.015 0.15 0.5 3.0 25 OUTLET
C338 0.015 0.15 0.5 3.0 25 OUTLET
C339 0.015 0.15 0.5 3.0 25 OUTLET
C340 0.015 0.15 0.5 3.0 25 OUTLET
C341 0.015 0.15 0.5 3.0 25 OUTLET
C342 0.015 0.15 0.5 3.0 25 OUTLET
C343 0.015 0.15 0.5 3.0 25 OUTLET
C344 0.015 0.15 0.5 3.0 25 OUTLET
C345 0.015 0.15 0.5 3.0 25 OUTLET
C346 0.015 0.15 0.5 3.0 25 OUTLET
C347 0.015 0.15 0.5 3.0 25 OUTLET
C348 0.015 0.15 0.5 3.0 25 OUTLET
C349 0.015 0.15 0.5 3.0 25 OUTLET
C350 0.015 0.15 0.5 3.0 25 OUTLET
C351 0.015 0.15 0.5 3.0 25 OUTLET
C352 0.015 0.15 0.5 3.0 25 OUTLET
C353 0.015 0.15 0.5 3.0 25 OUTLET
C354 0.015 0.15 0.5 3.0 25 OUTLET
C355 0.015 0.15 0.5 3.0 25 OUTLET
C356 0.015 0.15 0.5 3.0 25 OUTLET
C357 0.015 0.15 0.5 3.0 25 OUTLET
C358 0.015 0.15 0.5 3.0 25 OUTLET
C359 0.015 0.15 0.5 3.0 25 OUTLET
C360 0.015 0.15 0.5 3.0 25 OUTLET
C361 0.015 0.15 0.5 3.0 25 OUTLET
C362 0.015 0.15 0.5 3.0 25 OUTLET
C363 0.015 0.15 0.5 3.0 25 OUTLET
C364 0.015 0.15 0.5 3.0 25 OUTLET
C365 0.015 0.15 0.5 3.0 25 OUTLET
C366 0.015 0.15 0.5 3.0 25 OUTLET
C367 0.015 0.15 0.5 3.0 25 OUTLET
C368 0.015 0.15 0.5 3.0 25 OUTLET
C369 0.015 0.15 0.5 3.0 25 OUTLET
C370 0.015 0.15 0.5 3.0 25 OUTLET
C371 0.015 0.15 0.5 3.0 25 OUTLET
C372 0.015 0.15 0.5 3.0 25 OUTLET
C373 0.015 0.15 0.5 3.0 25 OUTLET
C374 0.015 0.15 0.5 3.0 25 OUTLET
C375 0.015 0.15 0.5 3.0 25 OUTLET
C376 0.015 0.15 0.5 3.0 25 OUTLET
C377 0.015 0.15 0.5 3.0 25 OUTLET
C378 0.015 0.15 0.5 3.0 25 OUTLET
C379 0.015 0.15 0.5 3.0 25 OUTLET
C380 0.015 0.15 0.5 3.0 25 OUTLET
C381 0.015 0.15 0.5 3.0 25 OUTLET
C382 0.015 0.15 0.5 3.0 25 OUTLET
C383 0.015 0.15 0.5 3.0 25 OUTLET
C384 0.015 0.15 0.5 3.0 25 OUTLET
C385 0.015 0.15 0.5 3.0 25 OUTLET
C386 0.015 0.15 0.5 3.0 25 OUTLET
C387 0.015 0.15 0.5 3.0 25 OUTLET
C388 0.015 0.15 0.5 3.0 25 OUTLET
C389 0.015 0.15 0.5 3.0 25 OUTLET
C390 0.015 0.15 0.5 3.0 25 OUTLET
C391 0.015 0.15 0.5 3.0 25 OUTLET
C392 0.015 0.15 0.5 3.0 25 OUTLET
C393 0.015 0.15 0.5 3.0 25 OUTLET
C394 0.015 0.15 0.5 3.0 25 OUTLET
C395 0.015 0.15 0.5 3.0 25 OUTLET
C396 0.015 0.15 0.5 3.0 25 OUTLET
C397 0.015 0.15 0.5 3.0 25 OUTLET
C398 0.015 0.15 0.5 3.0 25 OUTLET
C399 0.015 0.15 0.5 3.0 25 OUTLET
C400 0.015 0.15 0.5 3.0 25 OUTLET
C401 0.015 0.15 0.5 3.0 25 OUTLET
C402 0.015 0.15 0.5 3.0 25 OUTLET
C403 0.015 0.15 0.5 3.0 25 OUTLET
C404 0.015 0.15 0.5 3.0 25 OUTLET
C405 0.015 0.15 0.5 3.0 25 OUTLET
C406 0.015 0.15 0.5 3.0 25 OUTLET
C407 0.015 0.15 0.5 3.0 25 OUTLET
C408 0.015 0.15 0.5 3.0 25 OUTLET
C409 0.015 0.15 0.5 3.0 25 OUTLET
C410 0.015 0.15 0.5 3.0 25 OUTLET
C411 0.015 0.15 0.5 3.0 25 OUTLET
C412 0.015 0.15 0.5 3.0 25 OUTLET
C413 0.015 0.15 0.5 3.0 25 OUTLET
C414 0.015 0.15 0.5 3.0 25 OUTLET
C415 0.015 0.15 0.5 3.0 25 OUTLET
C416 0.015 0.15 0.5 3.0 25 OUTLET
C417 0.015 0.15 0.5 3.0 25 OUTLET
C418 0.015 0.15 0.5 3.0 25 OUTLET
C419 0.015 0.15 0.5 3.0 25 OUTLET
C420 0.015 0.15 0.5 3.0 25 OUTLET
C421 0.015 0.15 0.5 3.0 25 OUTLET
C422 0.015 0.15 0.5 3.0 25 OUTLET
C423 0.015 0.15 0.5 3.0 25 OUTLET
C424 0.015 0.15 0.5 3.0 25 OUTLET
C425 0.015 0.15 0.5 3.0 25 OUTLET
C426 0.015 0.15 0.5 3.0 25 OUTLET
C427 0.015 0.15 0.5 3.0 25 OUTLET
C428 0.015 0.15 0.5 3.0 25 OUTLET
C429 0.015 0.15 0.5 3.0 25 OUTLET
C430 0.015 0.15 0.5 3.0 25 OUTLET
C431 0.015 0.15 0.5 3.0 25 OUTLET
C432 0.015 0.15 0.5 3.0 25 OUTLET
C433 0.015 0.15 0.5 3.0 25 OUTLET
C434 0.015 0.15 0.5 3.0 25 OUTLET
C435 0.015 0.15 0.5 3.0 25 OUTLET
C436 0.015 0.15 0.5 3.0 25 OUTLET
C437 0.015 0.15 0.5 3.0 25 OUTLET
C438 0.015 0.15 0.5 3.0 25 OUTLET
C439 0.015 0.15 0.5 3.0 25 OUTLET
C440 0.015 0.15 0.5 3.0 25 OUTLET
C441 0.015 0.15 0.5 3.0 25 OUTLET
C442 0.015 0.15 0.5 3.0 25 OUTLET
C443 0.015 0.15 0.5 3.0 25 OUTLET
C444 0.015 0.15 0.5 3.0 25 OUTLET
C445 0.015 0.15 0.5 3.0 25 OUTLET
C446 0.015 0.15 0.5 3.0 25 OUTLET
C447 0.015 0.15 0.5 3.0 25 OUTLET
C448 0.015 0.15 0.5 3.0 25 OUTLET
C449 0.015 0.15 0.5 3.0 25 OUTLET
C450 0.015 0.15 0.5 3.0 25 OUTLET
C451 0.015 0.15 0.5 3.0 25 OUTLET
C452 0.015 0.15 0.5 3.0 25 OUTLET
C453 0.015 0.15 0.5 3.0 25 OUTLET
C454 0.015 0.15 0.5 3.0 25 OUTLET
C455 0.015 0.15 0.5 3.0 25 OUTLET
C456 0.015 0.15 0.5 3.0 25 OUTLET
C457 0.015 0.15 0.5 3.0 25 OUTLET
C458 0.015 0.15 0.5 3.0 25 OUTLET
C459 0.015 0.15 0.5 3.0 25 OUTLET
C460 0.015 0.15 0.5 3.0 25 OUTLET
C461 0.015 0.15 0.5 3.0 25 OUTLET
C462 0.015 0.15 0.5 3.0 25 OUTLET
C463 0.015 0.15 0.5 3.0 25 OUTLET
C464 0.015 0.15 0.5 3.0 25 OUTLET
C465 0.015 0.15 0.5 3.0 25 OUTLET
C466 0.015 0.15 0.5 3.0 25 OUTLET
C467 0.015 0.15 0.5 3.0 25 OUTLET
C468 0.015 0.15 0.5 3.0 25 OUTLET
C469 0.015 0.15 0.5 3.0 25 OUTLET
C470 0.015 0.15 0.5 3.0 25 OUTLET
C471 0.015 0.15 0.5 3.0 25 OUTLET
C472 0.015 0.15 0.5 3.0 25 OUTLET
C473 0.015 0.15 0.5 3.0 25 OUTLET
C474 0.015 0.15 0.5 3.0 25 OUTLET
C475 0.015 0.15 0.5 3.0 25 OUTLET
C476 0.015 0.15 0.5 3.0 25 OUTLET
C477 0.015 0.15 0.5 3.0 25 OUTLET
C478 0.015 0.15 0.5 3.0 25 OUTLET
C479 0.015 0.15 0.5 3.0 25 OUTLET
C480 0.015 0.15 0.5 3.0 25 OUTLET
C481 0.015 0.15 0.5 3.0 25 OUTLET
C482 0.015 0.15 0.5 3.0 25 OUTLET
C483 0.015 0.15 0.5 3.0 25 OUTLET
C484 0.015 0.15 0.5 3.0 25 OUTLET
C485 0.015 0.15 0.5 3.0 25 OUTLET
C486 0.015 0.15 0.5 3.0 25 OUTLET
C487 0.015 0.15 0.5 3.0 25 OUTLET
C488 0.015 0.15 0.5 3.0 25 OUTLET
C489 0.015 0.15 0.5 3.0 25 OUTLET
C490 0.015 0.15 0.5 3.0 25 OUTLET
C491 0.015 0.15 0.5 3.0 25 OUTLET
C492 0.015 0.15 0.5 3.0 25 OUTLET
C493 0.015 0.15 0.5 3.0 25 OUTLET
C494 0.015 0.15 0.5 3.0 25 OUTLET
C495 0.015 0.15 0.5 3.0 25 OUTLET
C496 0.015 0.15 0.5 3.0 25 OUTLET
C497 0.015 0.15 0.5 3.0 25 OUTLET
C498 0.015 0.15 0.5 3.0 25 OUTLET
C499 0.015 0.15 0.5 3.0 25 OUTLET
C500 0.015 0.15 0.5 3.0 25 OUTLET
C501 0.015 0.15 0.5 3.0 25 OUTLET
C502 0.015 0.15 0.5 3.0 25 OUTLET
C503 0.015 0.15 0.5 3.0 25 OUTLET
C504 0.015 0.15 0.5 3.0 25 OUTLET
C505 0.015 0.15 0.5 3.0 25 OUTLET
C506 0.015 0.15 0.5 3.0 25 OUTLET
C507 0.015 0.15 0.5 3.0 25 OUTLET
C508 0.015 0.15 0.5 3.0 25 OUTLET
C509 0.015 0.15 0.5 3.0 25 OUTLET
C510 0.015 0.15 0.5 3.0 25 OUTLET
C511 0.015 0.15 0.5 3.0 25 OUTLET
C512 0.015 0.15 0.5 3.0 25 OUTLET
C513 0.015 0.15 0.5 3.0 25 OUTLET
C514 0.015 0.15 0.5 3.0 25 OUTLET
C515 0.015 0.15 0.5 3.0 25 OUTLET
C516 0.015 0.15 0.5 3.0 25 OUTLET
C517 0.015 0.15 0.5 3.0 25 OUTLET
C518 0.015 0.15 0.5 3.0 25 OUTLET
C519 0.015 0.15 0.5 3.0 25 OUTLET
C520 0.015 0.15 0.5 3.0 25 OUTLET
C521 0.015 0.15 0.5 3.0 25 OUTLET
C522 0.015 0.15 0.5 3.0 25 OUTLET
C523 0.015 0.15 0.5 3.0 25 OUTLET
C524 0.015 0.15 0.5 3.0 25 OUTLET
C525 0.015 0.15 0.5 3.0 25 OUTLET
C526 0.015 0.15 0.5 3.0 25 OUTLET
C527 0.015 0.15 0.5 3.0 25 OUTLET
C528 0.015 0.15 0.5 3.0 25 OUTLET
C529 0.015 0.15 0.5 3.0 25 OUTLET
C530 0.015 0.15 0.5 3.0 25 OUTLET
C531 0.015 0.15 0.5 3.0 25 OUTLET
C532 0.015 0.15 0.5 3.0 25 OUTLET
C533 0.015 0.15 0.5 3.0 25 OUTLET
C534 0.015 0.15 0.5 3.0 25 OUTLET
C535 0.015 0.15 0.5 3.0 25 OUTLET
C536 0.015 0.15 0.5 3.0 25 OUTLET
C537 0.015 0.15 0.5 3.0 25 OUTLET
C538 0.015 0.15 0.5 3.0 25 OUTLET
C539 0.015 0.15 0.5 3.0 25 OUTLET
C540 0.015 0.15 0.5 3.0 25 OUTLET
C541 0.015 0.15 0.5 3.0 25 OUTLET
C542 0.015 0.15 0.5 3.0 25 OUTLET
C543 0.015 0.15 0.5 3.0 25 OUTLET
C544 0.015 0.15 0.5 3.0 25 OUTLET
C545 0.015 0.15 0.5 3.0 25 OUTLET
C546 0.015 0.15 0.5 3.0 25 OUTLET
C547 0.015 0.15 0.5 3.0 25 OUTLET
C548 0.015 0.15 0.5 3.0 25 OUTLET
C549 0.015 0.15 0.5 3.0 25 OUTLET
C550 0.015 0.15 0.5 3.0 25 OUTLET
C551 0.015 0.15 0.5 3.0 25 OUTLET
C552 0.015 0.15 0.5 3.0 25 OUTLET
C553 0.015 0.15 0.5 3.0 25 OUTLET
C554 0.015 0.15 0.5 3.0 25 OUTLET
C555 0.015 0.15 0.5 3.0 25 OUTLET
C556 0.015 0.15 0.5 3.0 25 OUTLET
C557 0.015 0.15 0.5 3.0 25 OUTLET
C558 0.015 0.15 0.5 3.0 25 OUTLET
C559 0.015 0.15 0.5 3.0 25 OUTLET
C560 0.015 0.15 0.5 3.0 25 OUTLET
C561 0.015 0.15 0.5 3.0 25 OUTLET
C562 0.015 0.15 0.5 3.0 25 OUTLET
C563 0.015 0.15 0.5 3.0 25 OUTLET
C564 0.015 0.15 0.5 3.0 25 OUTLET
C565 0.015 0.15 0.5 3.0 25 OUTLET
C566 0.015 0.15 0.5 3.0 25 OUTLET
C567 0.015 0.15 0.5 3.0 25 OUTLET
C568 0.015 0.15 0.5 3.0 25 OUTLET
C569 0.015 0.15 0.5 3.0 25 OUTLET
C570 0.015 0.15 0.5 3.0 25 OUTLET
C571 0.015 0.15 0.5 3.0 25 OUTLET
C572 0.015 0.15 0.5 3.0 25 OUTLET
C573 0.015 0.15 0.5 3.0 25 OUTLET
C574 0.015 0.15 0.5 3.0 25 OUTLET
C575 0.015 0.15 0.5 3.0 25 OUTLET
C576 0.015 0.15 0.5 3.0 25 OUTLET
C577 0.015 0.15 0.5 3.0 25 OUTLET
C578 0.015 0.15 0.5 3.0 25 OUTLET
C579 0.015 0.15 0.5 3.0 25 OUTLET
C580 0.015 0.15 0.5 3.0 25 OUTLET
C581 0.015 0.15 0.5 3.0 25 OUTLET
C582 0.015 0.15 0.5 3.0 25 OUTLET
C583 0.015 0.15 0.5 3.0 25 OUTLET
C584 0.015 0.15 0.5 3.0 25 OUTLET
C585 0.015 0.15 0.5 3.0 25 OUTLET
C586 0.015 0.15 0.5 3.0 25 OUTLET
C587 0.015 0.15 0.5 3.0 25 OUTLET
C588 0.015 0.15 0.5 3.0 25 OUTLET
C589 0.015 0.15 0.5 3.0 25 OUTLET
C590 0.015 0.15 0.5 3.0 25 OUTLET
C591 0.015 0.15 0.5 3.0 25 OUTLET
C592 0.015 0.15 0.5 3.0 25 OUTLET
C593 0.015 0.15 0.5 3.0 25 OUTLET
C594 0.015 0.15 0.5 3.0 25 OUTLET
C595 0.015 0.15 0.5 3.0 25 OUTLET
C596 0.015 0.15 0.5 3.0 25 OUTLET
C597 0.015 0.15 0.5 3.0 25 OUTLET
C598 0.015 0.15 0.5 3.0 25 OUTLET
C599 0.015 0.15 0.5 3.0 25 OUTLET
C600 0.015 0.15 0.5 3.0 25 OUTLET
C601 0.015 0.15 0.5 3.0 25 OUTLET
C602 0.015 0.15 0.5 3.0 25 OUTLET
C603 0.015 0.15 0.5 3.0 25 OUTLET
C604 0.015 0.15 0.5 3.0 25 OUTLET
C605 0.015 0.15 0.5 3.0 25 OUTLET
C606 0.015 0.15 0.5 3.0 25 OUTLET
C607 0.015 0.15 0.5 3.0 25 OUTLET
C608 0.015 0.15 0.5 3.0 25 OUTLET
C609 0.015 0.15 0.5 3.0 25 OUTLET
C610 0.015 0.15 0.5 3.0 25 OUTLET
C611 0.015 0.15 0.5 3.0 25 OUTLET
C612 0.015 0.15 0.5 3.0 25 OUTLET
C613 0.015 0.15 0.5 3.0 25 OUTLET
C614 0.015 0.15 0.5 3.0 25 OUTLET
C615 0.015 0.15 0.5 3.0 25 OUTLET
C616 0.015 0.15 0.5 3.0 25 OUTLET
C617 0.015 0.15 0.5 3.0 25 OUTLET
C618 0.015 0.15 0.5 3.0 25 OUTLET
C619 0.015 0.15 0.5 3.0 25 OUTLET
C620 0.015 0.15 0.5 3.0 25 OUTLET
C621 0.015 0.15 0.5 3.0 25 OUTLET
C622 0.015 0.15 0.5 3.0 25 OUTLET
C623 0.015 0.15 0.5 3.0 25 OUTLET
C624 0.015 0.15 0.5 3.0 25 OUTLET
C625 0.015 0.15 0.5 3.0 25 OUTLET
C626 0.015 0.15 0.5 3.0 25 OUTLET
C627 0.015 0.15 0.5 3.0 25 OUTLET
C628 0.015 0.15 0.5 3.0 25 OUTLET
C629 0.015 0.15 0.5 3.0 25 OUTLET
C630 0.015 0.15 0.5 3.0 25 OUTLET
C631 0.015 0.15 0.5 3.0 25 OUTLET
C632 0.015 0.15 0.5 3.0 25 OUTLET
C633 0.015 0.15 0.5 3.0 25 OUTLET
C634 0.015 0.15 0.5 3.0 25 OUTLET
C635 0.015 0.15 0.5 3.0 25 OUTLET
C636 0.015 0.15 0.5 3.0 25 OUTLET
C637 0.015 0.15 0.5 3.0 25 OUTLET
C638 0.015 0.15 0.5 3.0 25 OUTLET
C639 0.015 0.15 0.5 3.0 25 OUTLET
C640 0.015 0.15 0.5 3.0 25 OUTLET
C641 0.015 0.15 0.5 3.0 25 OUTLET
C642 0.015 0.15 0.5 3.0 25 OUTLET
C643 0.015 0.15 0.5 3.0 25 OUTLET
C644 0.015 0.15 0.5 3.0 25 OUTLET
C645 0.015 0.15 0.5 3.0 25 OUTLET
C646 0.015 0.15 0.5 3.0 25 OUTLET
C647 0.015 0.15 0.5 3.0 25 OUTLET
C648 0.015 0.15 0.5 3.0 25 OUTLET
C649 0.015 0.15 0.5 3.0 25 OUTLET
C650 0.015 0.15 0.5 3.0 25 OUTLET
C651 0.015 0.15 0.5 3.0 25 OUTLET
C652 0.015 0.15 0.5 3.0 25 OUTLET
C653 0.015 0.15 0.5 3.0 25 OUTLET
C654 0.015 0.15 0.5 3.0 25 OUTLET
C655 0.015 0.15 0.5 3.0 25 OUTLET
C656 0.015 0.15 0.5 3.0 25 OUTLET
C657 0.015 0.15 0.5 3.0 25 OUTLET
C658 0.015 0.15 0.5 3.0 25 OUTLET
C659 0.015 0.15 0.5 3.0 25 OUTLET
C660 0.015 0.15 0.5 3.0 25 OUTLET
C661 0.015 0.15 0.5 3.0 25 OUTLET
C662 0.015 0.15 0.5 3.0 25 OUTLET
C663 0.015 0.15 0.5 3.0 25 OUTLET
C664 0.015 0.15 0.5 3.0 25 OUTLET
C665 0.015 0.15 0.5 3.0 25 OUTLET
C666 0.015 0.15 0.5 3.0 25 OUTLET
C667 0.015 0.15 0.5 3.0 25 OUTLET
C668 0.015 0.15 0.5 3.0 25 OUTLET
C669 0.015 0.15 0.5 3.0 25 OUTLET
C670 0.015 0.15 0.5 3.0 25 OUTLET
C671 0.015 0.15 0.5 3.0 25 OUTLET
C672 0.015 0.15 0.5 3.0 25 OUTLET
C673 0.015 0.15 0.5 3.0 25 OUTLET
C674 0.015 0.15 0.5 3.0 25 OUTLET
C675 0.015 0.15 0.5 3.0 25 OUTLET
C676 0.015 0.15 0.5 3.0 25 OUTLET
C677 0.015 0.15 0.5 3.0 25 OUTLET
C678 0.015 0.15 0.5 3.0 25 OUTLET
C679 0.015 0.15 0.5 3.0 25 OUTLET
C680 0.015 0.15 0.5 3.0 25 OUTLET
C681 0.015 0.15 0.5 3.0 25 OUTLET
C682 0.015 0.15 0.5 3.0 25 OUTLET
C683 0.015 0.15 0.5 3.0 25 OUTLET
C684 0.015 0.15 0.5 3.0 25 OUTLET
C685 0.015 0.15 0.5 3.0 25 OUTLET
C686 0.015 0.15 0.5 3.0 25 OUTLET
C687 0.015 0.15 0.5 3.0 25 OUTLET
C688 0.015 0.15 0.5 3.0 25 OUTLET
C689 0.015 0.15 0.5 3.0 25 OUTLET
C690 0.015 0.15 0.5 3.0 25 OUTLET
C691 0.015 0.15 0.5 3.0 25 OUTLET
C692 0.015 0.15 0.5 3.0 25 OUTLET
C693 0.015 0.15 0.5 3.0 25 OUTLET
C694 0.015 0.15 0.5 3.0 25 OUTLET
C695 0.015 0.15 0.5 3.0 25 OUTLET
C696 0.015 0.15 0.5 3.0 25 OUTLET
C697 0.015 0.15 0.5 3.0 25 OUTLET
C698 0.015 0.15 0.5 3.0 25 OUTLET
C699 0.015 0.15 0.5 3.0 25 OUTLET
C700 0.015 0.15 0.5 3.0 25 OUTLET
C701 0.015 0.15 0.5 3.0 25 OUTLET
C702 0.015 0.15 0.5 3.0 25 OUTLET
C703 0.015 0.15 0.5 3.0 25 OUTLET
C704 0.015 0.15 0.5 3.0 25 OUTLET
C705 0.015 0.15 0.5 3.0 25 OUTLET
C706 0.015 0.15 0.5 3.0 25 OUTLET
C707 0.015 0.15 0.5 3.0 25 OUTLET
C708 0.015 0.15 0.5 3.0 25 OUTLET
C709 0.015 0.15 0.5 3.0 25 OUTLET
C710 0.015 0.15 0.5 3.0 25 OUTLET
C711 0.015 0.15 0.5 3.0 25 OUTLET
C712 0.015 0.15 0.5 3.0 25 OUTLET
C713 0.015 0.15 0.5 3.0 25 OUTLET
C714 0.015 0.15 0.5 3.0 25 OUTLET
C715 0.015 0.15 0.5 3.0 25 OUTLET
C716 0.015 0.15 0.5 3.0 25 OUTLET
C717 0.015 0.15 0.5 3.0 25 OUTLET
C718 0.015 0.15 0.5 3.0 25 OUTLET
C719 0.015 0.15 0.5 3.0 25 OUTLET
C720 0.015 0.15 0.5 3.0 25 OUTLET
C721 0.015 0.15 0.5 3.0 25 OUTLET
C722 0.015 0.15 0.5 3.0 25 OUTLET
C723 0.015 0.15 0.5 3.0 25 OUTLET
C724 0.015 0.15 0.5 3.0 25 OUTLET
C725 0.015 0.15 0.5 3.0 25 OUTLET
C726 0.015 0.15 0.5 3.0 25 OUTLET
C727 0.015 0.15 0.5 3.0 25 OUTLET
C728 0.015 0.15 0.5 3.0 25 OUTLET
C729 0.015 0.15 0.5 3.0 25 OUTLET
C730 0.015 0.15 0.5 3.0 25 OUTLET
C731 0.015 0.15 0.5 3.0 25 OUTLET
C732 0.015 0.15 0.5 3.0 25 OUTLET
C733 0.015 0.15 0.5 3.0 25 OUTLET
C734 0.015 0.15 0.5 3.0 25 OUTLET
C735 0.015 0.15 0.5 3.0 25 OUTLET
C736 0.015 0.15 0.5 3.0 25 OUTLET
C737 0.015 0.15 0.5 3.0 25 OUTLET
C738 0.015 0.15 0.5 3.0 25 OUTLET
C739 0.015 0.15 0.5 3.0 25 OUTLET
C740 0.015 0.15 0.5 3.0 25 OUTLET
C741 0.015 0.15 0.5 3.0 25 OUTLET
C742 0.015 0.15 0.5 3.0 25 OUTLET
C743 0.015 0.15 0.5 3.0 25 OUTLET
C744 0.015 0.15 0.5 3.0 25 OUTLET
C745 0.015 0.15 0.5 3.0 25 OUTLET
C746 0.015 0.15 0.5 3.0 25 OUTLET
C747 0.015 0.15 0.5 3.0 25 OUTLET
C748 0.015 0.15 0.5 3.0 25 OUTLET
C749 0.015 0.15 0.5 3.0 25 OUTLET
C750 0.015 0.15 0.5 3.0 25 OUTLET
C751 0.015 0.15 0.5 3.0 25 OUTLET
C752 0.015 0.15 0.5 3.0 25 OUTLET
C753 0.015 0.15 0.5 3.0 25 OUTLET
C754 0.015 0.15 0.5 3.0 25 OUTLET
C755 0.015 0.15 0.5 3.0 25 OUTLET
C756 0.015 0.15 0.5 3.0 25 OUTLET
C757 0.015 0.15 0.5 3.0 25 OUTLET
C758 0.015 0.15 0.5 3.0 25 OUTLET
C759 0.015 0.15 0.5 3.0 25 OUTLET
C760 0.015 0.15 0.5 3.0 25 OUTLET
C761 0.015 0.15 0.5 3.0 25 OUTLET
C762 0.015 0.15 0.5 3.0 25 OUTLET
C763 0.015 0.15 0.5 3.0 25 OUTLET
C764 0.015 0.15 0.5 3.0 25 OUTLET
C765 0.015 0.15 0.5 3.0 25 OUTLET
C766 0.015 0.15 0.5 3.0 25 OUTLET
C767 0.015 0.15 0.5 3.0 25 OUTLET
C768 0.015 0.15 0.5 3.0 25 OUTLET
C769 0.015 0.15 0.5 3.0 25 OUTLET
C770 0.015 0.15 0.5 3.0 25 OUTLET
C771 0.015 0.15 0.5 3.0 25 OUTLET
C772 0.015 0.15 0.5 3.0 25 OUTLET
C773 0.015 0.15 0.5 3.0 25 OUTLET
C774 0.015 0.15 0.5 3.0 25 OUTLET
C775 0.015 0.15 0.5 3.0 25 OUTLET
C776 0.015 0.15 0.5 3.0 25 OUTLET
C777 0.015 0.15 0.5 3.0 25 OUTLET
C778 0.015 0.15 0.5 3.0 25 OUTLET
C779 0.015 0.15 0.5 3.0 25 OUTLET
C780 0.015 0.15 0.5 3.0 25 OUTLET
C781 0.015 0.15 0.5 3.0 25 OUTLET
C782 0.015 0.15 0.5 3.0 25 OUTLET
C783 0.015 0.15 0.5 3.0 25 OUTLET
C784 0.015 0.15 0.5 3.0 25 OUTLET
C785 0.015 0.15 0.5 3.0 25 OUTLET
C786 0.015 0.15 0.5 3.0 25 OUTLET
C787 0.015 0.15 0.5 3.0 25 OUTLET
C788 0.015 0.15 0.5 3.0 25 OUTLET
C789 0.015 0.15 0.5 3.0 25 OUTLET
C790 0.015 0.15 0.5 3.0 25 OUTLET
C791 0.015 0.15 0.5 3.0 25 OUTLET
C792 0.015 0.15 0.5 3.0 25 OUTLET
C793 0.015 0.15 0.5 3.0 25 OUTLET
C794 0.015 0.15 0.5 3.0 25 OUTLET
C795 0.015 0.15 0.5 3.0 25 OUTLET
C796 0.015 0.15 0.5 3.0 25 OUTLET
C797 0.015 0.15 0.5 3.0 25 OUTLET
C798 0.015 0.15 0.5 3.0 25 OUTLET
C799 0.015 0.15 0.5 3.0 25 OUTLET
C800 0.015 0.15 0.5 3.0 25 OUTLET
C801 0.015 0.15 0.5 3.0 25 OUTLET
C802 0.015 0.15 0.5 3.0 25 OUTLET
C803 0.015 0.15 0.5 3.0 25 OUTLET
C804 0.015 0.15 0.5 3.0 25 OUTLET
C805 0.015 0.15 0.5 3.0 25 OUTLET
C806 0.015 0.15 0.5 3.0 25 OUTLET
C807 0.015 0.15 0.5 3.0 25 OUTLET
C808 0.015 0.15 0.5 3.0 25 OUTLET
C809 0.015 0.15 0.5 3.0 25 OUTLET
C810 0.015 0.15 0.5 3.0 25 OUTLET
C811 0.015 0.15 0.5 3.0 25 OUTLET
C812 0.015 0.15 0.5 3.0 25 OUTLET
C813 0.015 0.15 0.5 3.0 25 OUTLET
C814 0.015 0.15 0.5 3.0 25 OUTLET
C815 0.015 0.15 0.5 3.0 25 OUTLET
C816 0.015 0.15 0.5 3.0 25 OUTLET
C817 0.015 0.15 0.5 3.0 25 OUTLET
C818 0.015 0.15 0.5 3.0 25 OUTLET
C819 0.015 0.15 0.5 3.0 25 OUTLET
C820 0.015 0.15 0.5 3.0 25 OUTLET
C821 0.015 0.15 0.5 3.0 25 OUTLET
C822 0.015 0.15 0.5 3.0 25 OUTLET
C823 0.015 0.15 0.5 3.0 25 OUTLET
C824 0.015 0.15 0.5 3.0 25 OUTLET
C825 0.015 0.15 0.5 3.0 25 OUTLET
C826 0.015 0.15 0.5 3.0 25 OUTLET
C827 0.015 0.15 0.5 3.0 25 OUTLET
C828 0.015 0.15 0.5 3.0 25 OUTLET
C829 0.015 0.15 0.5 3.0 25 OUTLET
C830 0.015 0.15 0.5 3.0 25 OUTLET
C831 0.015 0.15 0.5 3.0 25 OUTLET
C832 0.015 0.15 0.5 3.0 25 OUTLET
C833 0.015 0.15 0.5 3.0 25 OUTLET
C834 0.015 0.15 0.5 3.0 25 OUTLET
C835 0.015 0.15 0.5 3.0 25 OUTLET
C836 0.015 0.15 0.5 3.0 25 OUTLET
C837 0.015 0.15 0.5 3.0 25 OUTLET
C838 0.015 0.15 0.5 3.0 25 OUTLET
C839 0.015 0.15 0.5 3.0 25 OUTLET
C840 0.015 0.15 0.5 3.0 25 OUTLET
C841 0.015 0.15 0.5 3.0 25 OUTLET
C842 0.015 0.15 0.5 3.0 25 OUTLET
C843 0.015 0.15 0.5 3.0 25 OUTLET
C844 0.015 0.15 0.5 3.0 25 OUTLET
C845 0.015 0.15 0.5 3.0 25 OUTLET
C846 0.015 0.15 0.5 3.0 25 OUTLET
C847 0.015 0.15 0.5 3.0 25 OUTLET
C848 0.015 0.15 0.5 3.0 25 OUTLET
C849 0.015 0.15 0.5 3.0 25 OUTLET
C850 0.015 0.15 0.5 3.0 25 OUTLET
C851 0.015 0.15 0.5 3.0 25 OUTLET
C852 0.015 0.15 0.5 3.0 25 OUTLET
C853 0.015 0.15 0.5 3.0 25 OUTLET
C854 0.015 0.15 0.5 3.0 25 OUTLET
C855 0.015 0.15 0.5 3.0 25 OUTLET
C856 0.015 0.15 0.5 3.0 25 OUTLET
C857 0.015 0.15 0.5 3.0 25 OUTLET
C858 0.015 0.15 0.5 3.0 25 OUTLET
C859 0.015 0.15 0.5 3.0 25 OUTLET
C860 0.015 0.15 0.5 3.0 25 OUTLET
C861 0.015 0.15 0.5 3.0 25 OUTLET
C862 0.015 0.15 0.5 3.0 25 OUTLET
C863 0.015 0.15 0.5 3.0 25 OUTLET
C864 0.015 0.15 0.5 3.0 25 OUTLET
C865 0.015 0.15 0.5 3.0 25 OUTLET
C866 0.015 0.15 0.5 3.0 25 OUTLET
C867 0.015 0.15 0.5 3.0 25 OUTLET
C868 0.015 0.15 0.5 3.0 25 OUTLET
C869 0.015 0.15 0.5 3.0 25 OUTLET
C870 0.015 0.15 0.5 3.0 25 OUTLET
C871 0.015 0.15 0.5 3.0 25 OUTLET
C872 0.015 0.15 0.5 3.0 25 OUTLET
C873 0.015 0.15 0.5 3.0 25 OUTLET
C874 0.015 0.15 0.5 3.0 25 OUTLET
C875 0.015 0.15 0.5 3.0 25 OUTLET
C876 0.015 0.15 0.5 3.0 25 OUTLET
C877 0.015 0.15 0.5 3.0 25 OUTLET
C878 0.015 0.15 0.5 3.0 25 OUTLET
C879 0.015 0.15 0.5 3.0 25 OUTLET
C880 0.015 0.15 0.5 3.0 25 OUTLET
C881 0.015 0.15 0.5 3.0 25 OUTLET
C882 0.015 0.15 0.5 3.0 25 OUTLET
C883 0.015 0.15 0.5 3.0 25 OUTLET
C884 0.015 0.15 0.5 3.0 25 OUTLET
C885 0.015 0.15 0.5 3.0 25 OUTLET
C886 0.015 0.15 0.5 3.0 25 OUTLET
C887 0.015 0.15 0.5 3.0 25 OUTLET
C888 0.015 0.15 0.5 3.0 25 OUTLET
C889 0.015 0.15 0.5 3.0 25 OUTLET
C890 0.015 0.15 0.5 3.0 25 OUTLET
C891 0.015 0.15 0.5 3.0 25 OUTLET
C892 0.015 0.15 0.5 3.0 25 OUTLET
C893 0.015 0.15 0.5 3.0 25 OUTLET
C894 0.015 0.15 0.5 3.0 25 OUTLET
C895 0.015 0.15 0.5 3.0 25 OUTLET
C896 0.015 0.15 0.5 3.0 25 OUTLET
C897 0.015 0.15 0.5 3.0 25 OUTLET
C898 0.015 0.15 0.5 3.0 25 OUTLET
C899 0.015 0.15 0.5 3.0 25 OUTLET
C900 0.015 0.15 0.5 3.0 25 OUTLET
C901 0.015 0.15 0.5 3.0 25 OUTLET
C902 0.015 0.15 0.5 3.0 25 OUTLET
C903 0.015 0.15 0.5 3.0 25 OUTLET
C904 0.015 0.15 0.5 3.0 25 OUTLET
C905 0.015 0.15 0.5 3.0 25 OUTLET
C906 0.015 0.15 0.5 3.0 25 OUTLET
C907 0.015 0.15 0.5 3.0 25 OUTLET
C908 0.015 0.15 0.5 3.0 25 OUTLET
C909 0.015 0.15 0.5 3.0 25 OUTLET
C910 0.015 0.15 0.5 3.0 25 OUTLET
C911 0.015 0.15 0.5 3.0 25 OUTLET
C912 0.015 0.15 0.5 3.0 25 OUTLET
C913 0.015 0.15 0.5 3.0 25 OUTLET
C914 0.015 0.15 0.5 3.0 25 OUTLET
C915 0.015 0.15 0.5 3.0 25 OUTLET
C916 0.015 0.15 0.5 3.0 25 OUTLET
C917 0.015 0.15 0.5 3.0 25 OUTLET
C918 0.015 0.15 0.5 3.0 25 OUTLET
C919 0.015 0.15 0.5 3.0 25 OUTLET
C920 0.015 0.15 0.5 3.0 25 OUTLET
C921 0.015 0.15 0.5 3.0 25 OUTLET
C922 0.015 0.15 0.5 3.0 25 OUTLET
C923 0.015 0.15 0.5 3.0 25 OUTLET
C924 0.015 0.15 0.5 3.0 25 OUTLET
C925 0.015 0.15 0.5 3.0 25 OUTLET
C926 0.015 0.15 0.5 3.0 25 OUTLET
C927 0.015 0.15 0.5 3.0 25 OUTLET
C928 0.015 0.15 0.5 3.0 25 OUTLET
C929 0.015 0.15 0.5 3.0 25 OUTLET
C930 0.015 0.15 0.5 3.0 25 OUTLET
C931 0.015 0.15 0.5 3.0 25 OUTLET
C932 0.015 0.15 0.5 3.0 25 OUTLET
C933 0.015 0.15 0.5 3.0 25 OUTLET
C934 0.015 0.15 0.5 3.0 25 OUTLET
C935 0.015 0.15 0.5 3.0 25 OUTLET
C936 0.015 0.15 0.5 3.0 25 OUTLET
C937 0.015 0.15 0.5 3.0 25 OUTLET
C938 0.015 0.15 0.5 3.0 25 OUTLET
C939 0.015 0.15 0.5 3.0 25 OUTLET
C940 0.015 0.15 0.5 3.0 25 OUTLET
C941 0.015 0.15 0.5 3.0 25 OUTLET
C942 0.015 0.15 0.5 3.0 25 OUTLET
C943 0.015 0.15 0.5 3.0 25 OUTLET
C944 0.015 0.15 0.5 3.0 25 OUTLET
C945 0.015 0.15 0.5 3.0 25 OUTLET
C946 0.015 0.15 0.5 3.0 25 OUTLET
C947 0.015 0.15 0.5 3.0 25 OUTLET
C948 0.015 0.15 0.5 3.0 25 OUTLET
C949 0.015 0.15 0.5 3.0 25 OUTLET
C950 0.015 0.15 0.5 3.0 25 OUTLET
C951 0.015 0.15 0.5 3.0 25 OUTLET
C952 0.015 0.15 0.5 3.0 25 OUTLET
C953 0.015 0.15 0.5 3.0 25 OUTLET
C954 0.015 0.15 0.5 3.0 25 OUTLET
C955 0.015 0.15 0.5 3.0 25 OUTLET
C956 0.015 0.15 0.5 3.0 25 OUTLET
C957 0.015 0.15 0.5 3.0 25 OUTLET
C958 0.015 0.15 0.5 3.0 25 OUTLET
C959 0.015 0.15 0.5 3.0 25 OUTLET
C960 0.015 0.15 0.5 3.0 25 OUTLET
C961 0.015 0.15 0.5 3.0 25 OUTLET
C962 0.015 0.15 0.5 3.0 25 OUTLET
C963 0.015 0.15 0.5 3.0 25 OUTLET
C964 0.015 0.15 0.5 3.0 25 OUTLET
C965 0.015 0.15 0.5 3.0 25 OUTLET
C966 0.015 0.15 0.5 3.0 25 OUTLET
C967 0.015 0.15 0.5 3.0 25 OUTLET
C968 0.015 0.15 0.5 3.0 25 OUTLET
C969 0.015 0.15 0.5 3.0 25 OUTLET
C970 0.015 0.15 0.5 3.0 25 OUTLET
C971 0.015 0.15 0.5 3.0 25 OUTLET
C972 0.015 0.15 0.5 3.0 25 OUTLET
C973 0.015 0.15 0.5 3.0 25 OUTLET
C974 0.015 0.15 0.5 3.0 25 OUTLET
C975 0.015 0.15 0.5 3.0 25 OUTLET
C976 0.015 0.15 0.5 3.0 25 OUTLET
C977 0.015 0.15 0.5 3.0 25 OUTLET
C978 0.015 0.15 0.5 3.0 25 OUTLET
C979 0.015 0.15 0.5 3.0 25 OUTLET
C980 0.015 0.15 0.5 3.0 25 OUTLET
C981 0.015 0.15 0.5 3.0 25 OUTLET
C982 0.015 0.15 0.5 3.0 25 OUTLET
C983 0.015 0.15 0.5 3.0 25 OUTLET
C984 0.015 0.15 0.5 3.0 25 OUTLET
C985 0.015 0.15 0.5 3.0 25 OUTLET
C986 0.015 0.15 0.5 3.0 25 OUTLET
C987 0.015 0.15 0.5 3.0 25 OUTLET
C988 0.015 0.15 0.5 3.0 25 OUTLET
C989 0.015 0.15 0.5 3.0 25 OUTLET
C990 0.015 0.15 0.5 3.0 25 OUTLET
C991 0.015 0.15 0.5 3.0 25 OUTLET
C992 0.015 0.15 0.5 3.0 25 OUTLET
C993 0.015 0.15 0.5 3.0 25 OUTLET
C994 0.015 0.15 0.5 3.0 25 OUTLET
C995 0.015 0.15 0.5 3.0 25 OUTLET
C996 0.015 0.15 0.5 3.0 25 OUTLET
C997 0.015 0.15 0.5 3.0 25 OUTLET
C998 0.015 0.15 0.5 3.0 25 OUTLET
C999 0.015 0.15 0.5 3.0 25 OUTLET
C1000 0.015 0.15 0.5 3.0 25 OUTLET
C1001 0.015 0.15 0.5 3.0 25 OUTLET
C1002 0.015 0.15 0.5 3.0 25 OUTLET
C1003 0.015 0.15 0.5 3.0 25 OUTLET
C1004 0.015 0.15 0.5 3.0 25 OUTLET
C1005 0.015 0.15 0.5 3.0 25 OUTLET
C1006 0.015 0.15 0.5 3.0 25 OUTLET
C1007 0.015 0.15 0.5 3.0 25 OUTLET
C1008 0.015 0.15 0.5 3.0 25 OUTLET
C1009 0.015 0.15 0.5 3.0 25 OUTLET
C1010 0.015 0.15 0.5 3.0 25 OUTLET
C1011 0.015 0.15 0.5 3.0 25 OUTLET
C1012 0.015 0.15 0.5 3.0 25 OUTLET
C1013 0.015 0.15 0.5 3.0 25 OUTLET
C1014 0.015 0.15 0.5 3.0 25 OUTLET
C1015 0.015 0.15 0.5 3.0 25 OUTLET
C1016 0.015 0.15 0.5 3.0 25 OUTLET
C1017 0.015 0.15 0.5 3.0 25 OUTLET
C1018 0.015 0.15 0.5 3.0 25 OUTLET
C1019 0.015 0.15 0.5 3.0 25 OUTLET
C1020 0.015 0.15 0.5 3.0 25 OUTLET
C1021 0.015 0.15 0.5 3.0 25 OUTLET
C1022 0.015 0.15 0.5 3.0 25 OUTLET
C1023 0.015 0.15 0.5 3.0 25 OUTLET
C1024 0.015 0.15 0.5 3.0 25 OUTLET
C1025 0.015 0.15 0.5 3.0 25 OUTLET
C1026 0.015 0.15 0.5 3.0 25 OUTLET
C1027 0.015 0.15 0.5 3.0 25 OUTLET
C1028 0.015 0.15 0.5 3.0 25 OUTLET
C1029 0.015 0.15 0.5 3.0 25 OUTLET
C1030 0.015 0.15 0.5 3.0 25 OUTLET
C1031 0.015 0.15 0.5 3.0 25 OUTLET
C1032 0.015 0.15 0.5 3.0 25 OUTLET
C1033 0.015 0.15 0.5 3.0 25 OUTLET
C1034 0.015 0.15 0.5 3.0 25 OUTLET
C1035 0.015 0.15 0.5 3.0 25 OUTLET
C1036 0.015 0.15 0.5 3.0 25 OUTLET
C1037 0.015 0.15 0.5 3.0 25 OUTLET
C1038 0.015 0.15 0.5 3.0 25 OUTLET
C1039 0.015 0.15 0.5 3.0 25 OUTLET
C1040 0.015 0.15 0.5 3.0 25 OUTLET
C1041 0.015 0.15 0.5 3.0 25 OUTLET
C1042 0.015 0.15 0.5 3.0 25 OUTLET
C1043 0.015 0.15 0.5 3.0 25 OUTLET
C1044 0.015 0.15 0.5 3.0 25 OUTLET
C1045 0.015 0.15 0.5 3.0 25 OUTLET
C1046 0.015 0.15 0.5 3.0 25 OUTLET
C1047 0.015 0.15 0.5 3.0 25 OUTLET
C1048 0.015 0.15 0.5 3.0 25 OUTLET
C1049 0.015 0.15 0.5 3.0 25 OUTLET
C1050 0.015 0.15 0.5 3.0 25 OUTLET
C1051 0.015 0.15 0.5 3.0 25 OUTLET
C1052 0.015 0.15 0.5 3.0 25 OUTLET
C1053 0.015 0.15 0.5 3.0 25 OUTLET
C1054 0.015 0.15 0.5 3.0 25 OUTLET
C1055 0.015 0.15 0.5 3.0 25 OUTLET
C1056 0.015 0.15 0.5 3.0 25 OUTLET
C1057 0.015 0.15 0.5 3.0 25 OUTLET
C1058 0.015 0.15 0.5 3.0 25 OUTLET
C1059 0.015 0.15 0.5 3.0 25 OUTLET
C1060 0.015 0.15 0.5 3.0 25 OUTLET
C1061 0.015 0.15 0.5 3.0 25 OUTLET
C1062 0.015 0.15 0.5 3.0 25 OUTLET
C1063 0.015 0.15 0.5 3.0 25 OUTLET
C1064 0.015 0.15 0.5 3.0 25 OUTLET
C1065 0.015 0.15 0.5 3.0 25 OUTLET
C1066 0.015 0.15 0.5 3.0 25 OUTLET
C1067 0.015 0.15 0.5 3.0 25 OUTLET
C1068 0.015 0.15 0.5 3.0 25 OUTLET
C1069 0.015 0.15 0.5 3.0 25 OUTLET
C1070 0.015 0.15 0.5 3.0 25 OUTLET
C1071 0.015 0.15 0.5 3.0 25 OUTLET
C1072 0.015 0.15 0.5 3.0 25 OUTLET
C1073 0.015 0.15 0.5 3.0 25 OUTLET
C1074 0.015 0.15 0.5 3.0 25 OUTLET
C1075 0.015 0.15 0.5 3.0 25 OUTLET
C1076 0.015 0.15 0.5 3.0 25 OUTLET
C1077 0.015 0.15 0.5 3.0 25 OUTLET
C1078 0.015 0.15 0.5 3.0 25 OUTLET
C1079 0.015 0.15 0.5 3.0 25 OUTLET
C1080 0.015 0.15 0.5 3.0 25 OUTLET
C1081 0.015 0.15 0.5 3.0 25 OUTLET
C1082 0.015 0.15 0.5 3.0 25 OUTLET
C1083 0.015 0.15 0.5 3.0 25 OUTLET
C1084 0.015 0.15 0.5 3.0 25 OUTLET
C1085 0.015 0.15 0.5 3.0 25 OUTLET
C1086 0.015 0.15 0.5 3.0 25 OUTLET
C1087 0.015 0.15 0.5 3.0 25 OUTLET
C1088 0.015 0.15 0.5 3.0 25 OUTLET
C1089 0.015 0.15 0.5 3.0 25 OUTLET
C1090 0.015 0.15 0.5 3.0 25 OUTLET
C1091 0.015 0.15 0.5 3.0 25 OUTLET
C1092 0.015 0.15 0.5 3.0 25 OUTLET
C1093 0.015 0.15 0.5 3.0 25 OUTLET
C1094 0.015 0.15 0.5 3.0 25 OUTLET
C1095 0.015 0.15 0.5 3.0 25 OUTLET
C1096 0.015 0.15 0.5 3.0 25 OUTLET
C1097 0.015 0.15 0.5 3.0 25 OUTLET
C1098 0.015 0.15 0.5 3.0 25 OUTLET
C1099 0.015 0.15 0.5 3.0 25 OUTLET
C1100 0.015 0.15 0.5 3.0 25 OUTLET
C1101 0.015 0.15 0.5 3.0 25 OUTLET
C1102 0.015 0.15 0.5 3.0 25 OUTLET
C1103 0.015 0.15 0.5 3.0 25 OUTLET
C1104 0.015 0.15 0.5 3.0 25 OUTLET
C1105 0.015 0.15 0.5 3.0 25 OUTLET
C1106 0.015 0.15 0.5 3.0 25 OUTLET
C1107 0.015 0.15 0.5 3.0 25 OUTLET
C1108 0.015 0.15 0.5 3.0 25 OUTLET
C1109 0.015 0.15 0.5 3.0 25 OUTLET
C1110 0.015 0.15 0.5 3.0 25 OUTLET
C1111 0.015 0.15 0.5 3.0 25 OUTLET
C1112 0.015 0.15 0.5 3.0 25 OUTLET
C1113 0.015 0.15 0.5 3.0 25 OUTLET
C1114 0.015 0.15 0.5 3.0 25 OUTLET
C1115 0.015 0.15 0.5 3.0 25 OUTLET
C1116 0.015 0.15 0.5 3.0 25 OUTLET
C1117 0.015 0.15 0.5 3.0 25 OUTLET
C1118 0.015 0.15 0.5 3.0 25 OUTLET
C1119 0.015 0.15 0.5 3.0 25 OUTLET
C1120 0.015 0.15 0.5 3.0 25 OUTLET
C1121 0.015 0.15 0.5 3.0 25 OUTLET
C1122 0.015 0.15 0.5 3.0 25 OUTLET
C1123 0.015 0.15 0.5 3.0 25 OUTLET
C1124 0.015 0.15 0.5 3.0 25 OUTLET
C1125 0.015 0.15 0.5 3.0 25 OUTLET
C1126 0.015 0.15 0.5 3.0 25 OUTLET
C1127 0.015 0.15 0.5 3.0 25 OUTLET
C1128 0.015 0.15 0.5 3.0 25 OUTLET
C1129 0.015 0.15 0.5 3.0 25 OUTLET
C1130 0.015 0.15 0.5 3.0 25 OUTLET
C1131 0.015 0.15 0.5 3.0 25 OUTLET
C1132 0.015 0.15 0.5 3.0 25 OUTLET
C1133 0.015 0.15 0.5 3.0 25 OUTLET
C1134 0.015 0.15 0.5 3.0 25 OUTLET
C1135 0.015 0.15 0.5 3.0 25 OUTLET
C1136 0.015 0.15 0.5 3.0 25 OUTLET
C1137 0.015 0.15 0.5 3.0 25 OUTLET
C1138 0.015 0.15 0.5 3.0 25 OUTLET
C1139 0.015 0.15 0.5 3.0 25 OUTLET
C1140 0.015 0.15 0.5 3.0 25 OUTLET
C1141 0.015 0.15 0.5 3.0 25 OUTLET
C1142 0.015 0.15 0.5 3.0 25 OUTLET
C1143 0.015 0.15 0.5 3.0 25 OUTLET
C1144 0.015 0.15 0.5 3.0 25 OUTLET
C1145 0.015 0.15 0.5 3.0 25 OUTLET
C1146 0.015 0.15 0.5 3.0 25 OUTLET
C1147 0.015 0.15 0.5 3.0 25 OUTLET
C1148 0.015 0.15 0.5 3.0 25 OUTLET
C1149 0.015 0.15 0.5 3.0 25 OUTLET
C1150 0.015 0.15 0.5 3.0 25 OUTLET
C1151 0.015 0.15 0.5 3.0 25 OUTLET
C1152 0.015 0.15 0.5 3.0 25 OUTLET
C1153 0.015 0.15 0.5 3.0 25 OUTLET
C1154 0.015 0.15 0.5 3.0 25 OUTLET
C1155 0.015 0.15 0.5 3.0 25 OUTLET
C1156 0.015 0.15 0.5 3.0 25 OUTLET
C1157 0.015 0.15 0.5 3.0 25 OUTLET
C1158 0.015 0.15 0.5 3.0 25 OUTLET
C1159 0.015 0.15 0.5 3.0 25 OUTLET
C1160 0.015 0.15 0.5 3.0 25 OUTLET
C1161 0.015 0.15 0.5 3.0 25 OUTLET
C1162 0.015 0.15 0.5 3.0 25 OUTLET
C1163 0.015 0.15 0.5 3.0 25 OUTLET
C1164 0.015 0.15 0.5 3.0 25 OUTLET
C1165 0.015 0.15 0.5 3.0 25 OUTLET
C1166 0.015 0.15 0.5 3.0 25 OUTLET
C1167 0.015 0.15 0.5 3.0 25 OUTLET
C1168 0.015 0.15 0.5 3.0 25 OUTLET
C1169 0.015 0.15 0.5 3.0 25 OUTLET
C1170 0.015 0.15 0.5 3.0 25 OUTLET
C1171 0.015 0.15 0.5 3.0 25 OUTLET
C1172 0.015 0.15 0.5 3.0 25 OUTLET
C1173 0.015 0.15 0.5 3.0 25 OUTLET
C1174 0.015 0.15 0.5 3.0 25 OUTLET
C1175 0.015 0.15 0.5 3.0 25 OUTLET
C1176 0.015 0.15 0.5 3.0 25 OUTLET
C1177 0.015 0.15 0.5 3.0 25 OUTLET
C1178 0.015 0.15 0.5 3.0 25 OUTLET
C1179 0.015 0.15 0.5 3.0 25 OUTLET
C1180 0.015 0.15 0.5 3.0 25 OUTLET
C1181 0.015 0.15 0.5 3.0 25 OUTLET
C1182 0.015 0.15 0.5 3.0 25 OUTLET
C1183 0.015 0.15 0.5 3.0 25 OUTLET
C1184 0.015 0.15 0.5 3.0 25 OUTLET
C1185 0.015 0.15 0.5 3.0 25 OUTLET
C1186 0.015 0.15 0.5 3.0 25 OUTLET
C1187 0.015 0.15 0.5 3.0 25 OUTLET
C1188 0.015 0.15 0.5 3.0 25 OUTLET
C1189 0.015 0.15 0.5 3.0 25 OUTLET
C1190 0.015 0.15 0.5 3.0 25 OUTLET
C1191 0.015 0.15 0.5 3.0 25 OUTLET
C1192 0.015 0.15 0.5 3.0 25 OUTLET
C1193 0.015 0.15 0.5 3.0 25 OUTLET
C1194 0.015 0.15 0.5 3.0 25 OUTLET
C1195 0.015 0.15 0.5 3.0 25 OUTLET
C1196 0.015 0.15 0.5 3.0 25 OUTLET
C1197 0.015 0.15 0.5 3.0 25 OUTLET
C1198 0.015 0.15 0.5 3.0 25 OUTLET
C1199 0.015 0.15 0.5 3.0 25 OUTLET
C1200 0.015 0.15 0.5 3.0 25 OUTLET
C1201 0.015 0.15 0.5 3.0 25 OUTLET
C1202 0.015 0.15 0.5 3.0 25 OUTLET
C1203 0.015 0.15 0.5 3.0 25 OUTLET
C1204 0.015 0.15 0.5 3.0 25 OUTLET
C1205 0.015 0.15 0.5 3.0 25 OUTLET
C1206 0.015 0.15 0.5 3.0 25 OUTLET
C1207 0.015 0.15 0.5 3.0 25 OUTLET
C1208 0.015 0.15 0.5 3.0 25 OUTLET
C1209 0.015 0.15 0.5 3.0 25 OUTLET
C1210 0.015 0.15 0.5 3.0 25 OUTLET
C1211 0.015 0.15 0.5 3.0 25 OUTLET
C1212 0.015 0.15 0.5 3.0 25 OUTLET
C1213 0.015 0.15 0.5 3.0 25 OUTLET
C1214 0.015 0.15 0.5 3.0 25 OUTLET
C1215 0.015 0.15 0.5 3.0 25 OUTLET
C1216 0.015 0.15 0.5 3.0 25 OUTLET
C1217 0.015 0.15 0.5 3.0 25 OUTLET
C1218 0.015 0.15 0.5 3.0 25 OUTLET
C1219 0.015 0.15 0.5 3.0 25 OUTLET
C1220 0.015 0.15 0.5 3.0 25 OUTLET
C1221 0.015 0.15 0.5 3.0 25 OUTLET
C1222 0.015 0.15 0.5 3.0 25 OUTLET
C1223 0.015 0.15 0.5 3.0 25 OUTLET
C1224 0.015 0.15 0.5 3.0 25 OUTLET
C1225 0.015 0.15 0.5 3.0 25 OUTLET
C1226 0.015 0.15 0.5 3.0 25 OUTLET
C1227 0.015 0.15 0.5 3.0 25 OUTLET
C1228 0.015 0.15 0.5 3.0 25 OUTLET
C1229 0.015 0.15 0.5 3.0 25 OUTLET
C1230 0.015 0.15 0.5 3.0 25 OUTLET
C1231 0.015 0.15 0.5 3.0 25 OUTLET
C1232 0.015 0.15 0.5 3.0 25 OUTLET
C1233 0.015 0.15 0.5 3.0 25 OUTLET
C1234 0.015 0.15 0.5 3.0 25 OUTLET
C1235 0.015 0.15 0.5 3.0 25 OUTLET
C1236 0.015 0.15 0.5 3.0 25 OUTLET
C1237 0.015 0.15 0.5 3.0 25 OUTLET
C1238 0.015 0.15 0.5 3.0 25 OUTLET
C1239 0.015 0.15 0.5 3.0 25 OUTLET
C1240 0.015 0.15 0.5 3.0 25 OUTLET
C1241 0.015 0.15 0.5 3.0 25 OUTLET
C1242 0.015 0.15 0.5 3.0 25 OUTLET
C1243 0.015 0.15 0.5 3.0 25 OUTLET
C1244 0.015 0.15 0.5 3.0 25 OUTLET
C1245 0.015 0.15 0.5 3.0 25 OUTLET
C1246 0.015 0.15 0.5 3.0 25 OUTLET
C1247 0.015 0.15 0.5 3.0 25 OUTLET
C1248 0.015 0.15 0.5 3.0 25 OUTLET
C1249 0.015 0.15 0.5 3.0 25 OUTLET
C1250 0.015 0.15 0.5 3.0 25 OUTLET
C1251 0.015 0.15 0.5 3.0 25 OUTLET
C1252 0.015 0.15 0.5 3.0 25 OUTLET
C1253 0.015 0.15 0.5 3.0 25 OUTLET
C1254 0.015 0.15 0.5 3.0 25 OUTLET
C1255 0.015 0.15 0.5 3.0 25 OUTLET
C1256 0.015 0.15 0.5 3.0 25 OUTLET
C1257 0.015 0.15 0.5 3.0 25 OUTLET
C1258 0.015 0.15 0.5 3.0 25 OUTLET
C1259 0.015 0.15 0.5 3.0 25 OUTLET
C1260 0.015 0.15 0.5 3.0 25 OUTLET
C1261 0.015 0.15 0.5 3.0 25 OUTLET
C1262 0.015 0.15 0.5 3.0 25 OUTLET
C1263 0.015 0.15 0.5 3.0 25 OUTLET
C1264 0.015 0.15 0.5 3.0 25 OUTLET
C1265 0.015 0.15 0.5 3.0 25 OUTLET
C1266 0.015 0.15 0.5 3.0 25 OUTLET
C1267 0.015 0.15 0.5 3.0 25 OUTLET
C1268 0.015 0.15 0.5 3.0 25 OUTLET
C1269 0.015 0.15 0.5 3.0 25 OUTLET
C1270 0.015 0.15 0.5 3.0 25 OUTLET
C1271 0.015 0.15 0.5 3.0 25 OUTLET
C1272 0.015 0.15 0.5 3.0 25 OUTLET
C1273 0.015 0.15 0.5 3.0 25 OUTLET
C1274 0.015 0.15 0.5 3.0 25 OUTLET
C1275 0.015 0.15 0.5 3.0 25 OUTLET
C1276 0.015 0.15 0.5 3.0 25 OUTLET
C1277 0.015 0.15 0.5 3.0 25 OUTLET
C1278 0.015 0.15 0.5 3.0 25 OUTLET
C1279 0.015 0.15 0.5 3.0 25 OUTLET
C1280 0.015 0.15 0.5 3.0 25 OUTLET
C1281 0.015 0.15 0.5 3.0 25 OUTLET
C1282 0.015 0.15 0.5 3.0 25 OUTLET
C1283 0.015 0.15 0.5 3.0 25 OUTLET
C1284 0.015 0.15 0.5 3.0 25 OUTLET
C1285 0.015 0.15 0.5 3.0 25 OUTLET
C1286 0.015 0.15 0.5 3.0 25 OUTLET
C1287 0.015 0.15 0.5 3.0 25 OUTLET
C1288 0.015 0.15 0.5 3.0 25 OUTLET
C1289 0.015 0.15 0.5 3.0 25 OUTLET
C1290 0.015 0.15 0.5 3.0 25 OUTLET
C1291 0.015 0.15 0.5 3.0 25 OUTLET
C1292 0.015 0.15 0.5 3.0 25 OUTLET
C1293 0.015 0.15 0.5 3.0 25 OUTLET
C1294 0.015 0.15 0.5 3.0 25 OUTLET
C1295 0.015 0.15 0.5 3.0 25 OUTLET
C1296 0.015 0.15 0.5 3.0 25 OUTLET
C1297 0.015 0.15 0.5 3.0 25 OUTLET
C1298 0.015 0.15 0.5 3.0 25 OUTLET
C1299 0.015 0.15 0.5 3.0 25 OUTLET
C1300 0.015 0.15 0.5 3.0 25 OUTLET
C1301 0.015 0.15 0.5 3.0 25 OUTLET
C1302 0.015 0.15 0.5 3.0 25 OUTLET
C1303 0.015 0.15 0.5 3.0 25 OUTLET
C1304 0.015 0.15 0.5 3.0 25 OUTLET
C1305 0.015 0.15 0.5 3.0 25 OUTLET
C1306 0.015 0.15 0.5 3.0 25 OUTLET
C1307 0.015 0.15 0.5 3.0 25 OUTLET
C1308 0.015 0.15 0.5 3.0 25 OUTLET
C1309 0.015 0.15 0.5 3.0 25 OUTLET
C1310 0.015 0.15 0.5 3.0 25 OUTLET
C1311 0.015 0.15 0.5 3.0 25 OUTLET
C1312 0.015 0.15 0.5 3.0 25 OUTLET
C1313 0.015 0.15 0.5 3.0 25 OUTLET
C1314 0.015 0.15 0.5 3.0 25 OUTLET
C1315 0.015 0.15 0.5 3.0 25 OUTLET
C1316 0.015 0.15 0.5 3.0 25 OUTLET
C1317 0.015 0.15 0.5 3.0 25 OUTLET
C1318 0.015 0.15 0.5 3.0 25 OUTLET
C1319 0.015 0.15 0.5 3.0 25 OUTLET
C1320 0.015 0.15 0.5 3.0 25 OUTLET
C1321 0.015 0.15 0.5 3.0 25 OUTLET
C1322 0.015 0.15 0.5 3.0 25 OUTLET
C1323 0.015 0.15 0.5 3.0 25 OUTLET
C1324 0.015 0.15 0.5 3.0 25 OUTLET
C1325 0.015 0.15 0.5 3.0 25 OUTLET
C1326 0.015 0.15 0.5 3.0 25 OUTLET
C1327 0.015 0.15 0.5 3.0 25 OUTLET
C1328 0.015 0.15 0.5 3.0 25 OUTLET
C1329 0.015 0.15 0.5 3.0 25 OUTLET
C1330 0.015 0.15 0.5 3.0 25 OUTLET
C1331 0.015 0.15 0.5 3.0 25 OUTLET
C1332 0.015 0.15 0.5 3.0 25 OUTLET
C1333 0.015 0.15 0.5 3.0 25 OUTLET
C1334 0.015 0.15 0.5 3.0 25 OUTLET
C1335 0.015 0.15 0.5 3.0 25 OUTLET
C1336 0.015 0.15 0.5 3.0 25 OUTLET
C1337 0.015 0.15 0.5 3.0 25 OUTLET
C1338 0.015 0.15 0.5 3.0 25 OUTLET
C1339 0.015 0.15 0.5 3.0 25 OUTLET
C1340 0.015 0.15 0.5 3.0 25 OUTLET
C1341 0.015 0.15 0.5 3.0 25 OUTLET
C1342 0.015 0.15 0.5 3.0 25 OUTLET
C1343 0.015 0.15 0.5 3.0 25 OUTLET
C1344 0.015 0.15 0.5 3.0 25 OUTLET
C1345 0.015 0.15 0.5 3.0 25 OUTLET
C1346 0.015 0.15 0.5 3.0 25 OUTLET
C1347 0.015 0.15 0.5 3.0 25 OUTLET
C1348 0.015 0.15 0.5 3.0 25 OUTLET
C1349 0.015 0.15 0.5 3.0 25 OUTLET
C1350 0.015 0.15 0.5 3.0 25 OUTLET
C1351 0.015 0.15 0.5 3.0 25 OUTLET
C1352 0.015 0.15 0.5 3.0 25 OUTLET
C1353 0.015 0.15 0.5 3.0 25 OUTLET
C1354 0.015 0.15 0.5 3.0 25 OUTLET
C1355 0.015 0.15 0.5 3.0 25 OUTLET
C1356 0.015 0.15 0.5 3.0 25 OUTLET
C1357 0.015 0.15 0.5 3.0 25 OUTLET
C1358 0.015 0.15 0.5 3.0 25 OUTLET
C1359 0.015 0.15 0.5 3.0 25 OUTLET
C1360 0.015 0.15 0.5 3.0 25 OUTLET
C1361 0.015 0.15 0.5 3.0 25 OUTLET
C1362 0.015 0.15 0.5 3.0 25 OUTLET
C1363 0.015 0.15 0.5 3.0 25 OUTLET
C1364 0.015 0.15 0.5 3.0 25 OUTLET
C1365 0.015 0.15 0.5 3.0 25 OUTLET
C1366 0.015 0.15 0.5 3.0 25 OUTLET
C1367 0.015 0.15 0.5 3.0 25 OUTLET
C1368 0.015 0.15 0.5 3.0 25 OUTLET
C1369 0.015 0.15 0.5 3.0 25 OUTLET
C1370 0.015 0.15 0.5 3.0 25 OUTLET
C1371 0.015 0.15 0.5 3.0 25 OUTLET
C1372 0.015 0.15 0.5 3.0 25 OUTLET
C1373 0.015 0.15 0.5 3.0 25 OUTLET
C1374 0.015 0.15 0.5 3.0 25 OUTLET
C1375 0.015 0.15 0.5 3.0 25 OUTLET
C1376 0.015 0.15 0.5 3.0 25 OUTLET
C1377 0.015 0.15 0.5 3.0 25 OUTLET
C1378 0.015 0.15 0.5 3.0 25 OUTLET
C1379 0.015 0.15 0.5 3.0 25 OUTLET
C1380 0.015 0.15 0.5 3.0 25 OUTLET
C1381 0.015 0.15 0.5 3.0 25 OUTLET
C1382 0.015 0.15 0.5 3.0 25 OUTLET
C1383 0.015 0.15 0.5 3.0 25 OUTLET
C1384 0.015 0.15 0.5 3.0 25 OUTLET
C1385 0.015 0.15 0.5 3.0 25 OUTLET
C1386 0.015 0.15 0.5 3.0 25 OUTLET
C1387 0.015 0.15 0.5 3.0 25 OUTLET
C1388 0.015 0.15 0.5 3.0 25 OUTLET
C1389 0.015 0.15 0.5 3.0 25 OUTLET
C1390 0.015 0.15 0.5 3.0 25 OUTLET
C1391 0.015 0.15 0.5 3.0 25 OUTLET
C1392 0.015 0.15 0.5 3.0 25 OUTLET
C1393 0.015 0.15 0.5 3.0 25 OUTLET
C1394 0.015 0.15 0.5 3.0 25 OUTLET
C1395 0.015 0.15 0.5 3.0 25 OUTLET
C1396 0.015 0.15 0.5 3.0 25 OUTLET
C1397 0.015 0.15 0.5 3.0 25 OUTLET
C1398 0.015 0.15 0.5 3.0 25 OUTLET
C1399 0.015 0.15 0.5 3.0 25 OUTLET
C1400 0.015 0.15 0.5 3.0 25 OUTLET
C1401 0.015 0.15 0.5 3.0 25 OUTLET
C1402 0.015 0.15 0.5 3.0 25 OUTLET
C1403 0.015 0.15 0.5 3.0 25 OUTLET
C1404 0.015 0.15 0.5 3.0 25 OUTLET
C1405 0.015 0.15 0.5 3.0 25 OUTLET
C1406 0.015 0.15 0.5 3.0 25 OUTLET
C1407 0.015 0.15 0.5 3.0 25 OUTLET
C1408 0.015 0.15 0.5 3.0 25 OUTLET
C1409 0.015 0.15 0.5 3.0 25 OUTLET
C1410 0.015 0.15 0.5 3.0 25 OUTLET
C1411 0.015 0.15 0.5 3.0 25 OUTLET
C1412 0.015 0.15 0.5 3.0 25 OUTLET
C1413 0.015 0.15 0.5 3.0 25 OUTLET
C1414 0.015 0.15 0.5 3.0 25 OUTLET
C1415 0.015 0.15 0.5 3.0 25 OUTLET
C1416 0.015 0.15 0.5 3.0 25 OUTLET
C1417 0.015 0.15 0.5 3.0 25 OUTLET
C1418 0.015 0.15 0.5 3.0 25 OUTLET
C1419 0.015 0.15 0.5 3.0 25 OUTLET
C1420 0.015 0.15 0.5 3.0 25 OUTLET
C1421 0.015 0.15 0.5 3.0 25 OUTLET
C1422 0.015 0.15 0.5 3.0 25 OUTLET
C1423 0.015 0.15 0.5 3.0 25 OUTLET
C1424 0.015 0.15 0.5 3.0 25 OUTLET
C1425 0.015 0.15 0.5 3.0 25 OUTLET
C1426 0.015 0.15 0.5 3.0 25 OUTLET
C1427 0.015 0.15 0.5 3.0 25 OUTLET
C1428 0.015 0.15 0.5 3.0 25 OUTLET
C1429 0.015 0.15 0.5 3.0 25 OUTLET
C1430 0.015 0.15 0.5 3.0 25 OUTLET
C1431 0.015 0.15 0.5 3.0 25 OUTLET
C1432 0.015 0.15 0.5 3.0 25 OUTLET
C1433 0.015 0.15 0.5 3.0 25 OUTLET
C1434 0.015 0.15 0.5 3.0 25 OUTLET
C1435 0.015 0.15 0.5 3.0 25 OUTLET
C1436 0.015 0.15 0.5 3.0 25 OUTLET
C1437 0.015 0.15 0.5 3.0 25 OUTLET
C1438 0.015 0.15 0.5 3.0 25 OUTLET
C1439 0.015 0.15 0.5 3.0 25 OUTLET
C1440 0.015 0.15 0.5 3.0 25 OUTLET
C1441 0.015 0.15 0.5 3.0 25 OUTLET
C1442 0.015 0.15 0.5 3.0 25 OUTLET
C1443 0.015 0.15 0.5 3.0 25 OUTLET
C1444 0.015 0.15 0.5 3.0 25 OUTLET
C1445 0.015 0.15 0.5 3.0 25 OUTLET
C1446 0.015 0.15 0.5 3.0 25 OUTLET
C1447 0.015 0.15 0.5 3.0 25 OUTLET
C1448 0.015 0.15 0.5 3.0 25 OUTLET
C1449 0.015 0.15 0.5 3.0 25 OUTLET
C1450 0.015 0.15 0.5 3.0 25 OUTLET
C1451 0.015 0.15 0.5 3.0 25 OUTLET
C1452 0.015 0.15 0.5 3.0 25 OUTLET
C1453 0.015 0.15 0.5 3.0 25 OUTLET
C1454 0.015 0.15 0.5 3.0 25 OUTLET
C1455 0.015 0.15 0.5 3.0 25 OUTLET
C1456 0.015 0.15 0.5 3.0 25 OUTLET
C1457 0.015 0.15 0.5 3.0 25 OUTLET
C1458 0.015 0.15 0.5 3.0 25 OUTLET
C1459 0.015 0.15 0.5 3.0 25 OUTLET
C1460 0.015 0.15 0.5 3.0 25 OUTLET
C1461 0.015 0.15 0.5 3.0 25 OUTLET
C1462 0.015 0.15 0.5 3.0 25 OUTLET
C1463 0.015 0.15 0.5 3.0 25 OUTLET
C1464 0.015 0.15 0.5 3.0 25 OUTLET
C1465 0.015 0.15 0.5 3.0 25 OUTLET
C1466 0.015 0.15 0.5 3.0 25 OUTLET
C1467 0.015 0.15 0.5 3.0 25 OUTLET
C1468 0.015 0.15 0.5 3.0 25 OUTLET
C1469 0.015 0.15 0.5 3.0 25 OUTLET
C1470 0.015 0.15 0.5 3.0 25 OUTLET
C1471 0.015 0.15 0.5 3.0 25 OUTLET
C1472 0.015 0.15 0.5 3.0 25 OUTLET
C1473 0.015 0.15 0.5 3.0 25 OUTLET
C1474 0.015 0.15 0.5 3.0 25 OUTLET
C1475 0.015 0.15 0.5 3.0 25 OUTLET
C1476 0.015 0.15 0.5 3.0 25 OUTLET
C1477 0.015 0.15 0.5 3.0 25 OUTLET
C1478 0.015 0.15 0.5 3.0 25 OUTLET
C1479 0.015 0.15 0.5 3.0 25 OUTLET
C1480 0.015 0.15 0.5 3.0 25 OUTLET
C1481 0.015 0.15 0.5 3.0 25 OUTLET
C1482 0.015 0.15 0.5 3.0 25 OUTLET
C1483 0.015 0.15 0.5 3.0 25 OUTLET
C1484 0.015 0.15 0.5 3.0 25 OUTLET
C1485 0.015 0.15 0.5 3.0 25 OUTLET
C1486 0.015 0.15 0.5 3.0 25 OUTLET
C1487 0.015 0.15 0.5 3.0 25 OUTLET
C1488 0.015 0.15 0.5 3.0 25 OUTLET
C1489 0.015 0.15 0.5 3.0 25 OUTLET
C1490 0.015 0.15 0.5 3.0 25 OUTLET
C1491 0.015 0.15 0.5 3.0 25 OUTLET
C1492 0.015 0.15 0.5 3.0 25 OUTLET
C1493 0.015 0.15 0.5 3.0 25 OUTLET
C1494 0.015 0.15 0.5 3.0 25 OUTLET
C1495 0.015 0.15 0.5 3.0 25 OUTLET
C1496 0.015 0.15 0.5 3.0 25 OUTLET
C1497 0.015 0.15 0.5 3.0 25 OUTLET
C1498 0.015 0.15 0.5 3.0 25 OUTLET
C1499 0.015 0.15 0.5 3.0 25 OUTLET
C1500 0.015 0.15 0.5 3.0 25 OUTLET
C1501 0.015 0.15 0.5 3.0 25 OUTLET
C1502 0.015 0.15 0.5 3.0 25 OUTLET
C1503 0.015 0.15 0.5 3.0 25 OUTLET
C1504 0.015 0.15 0.5 3.0 25 OUTLET
C1505 0.015 0.15 0.5 3.0 25 OUTLET
C1506 0.015 0.15 0.5 3.0 25 OUTLET
C1507 0.015 0.15 0.5 3.0 25 OUTLET
C1508 0.015 0.15 0.5 3.0 25 OUTLET
C1509 0.015 0.15 0.5 3.0 25 OUTLET
C1510 0.015 0.15 0.5 3.0 25 OUTLET
C1511 0.015 0.15 0.5 3.0 25 OUTLET
C1512 0.015 0.15 0.5 3.0 25 OUTLET
C1513 0.015 0.15 0.5 3.0 25 OUTLET
C1514 0.015 0.15 0.5 3.0 25 OUTLET
C1515 0.015 0.15 0.5 3.0 25 OUTLET
C1516 0.015 0.15 0.5 3.0 25 OUTLET
C1517 0.015 0.15 0.5 3.0 25 OUTLET
C1518 0.015 0.15 0.5 3.0 25 OUTLET
C1519 0.015 0.15 0.5 3.0 25 OUTLET
C1520 0.015 0.15 0.5 3.0 25 OUTLET
C1521 0.015 0.15 0.5 3.0 25 OUTLET
C1522 0.015 0.15 0.5 3.0 25 OUTLET
C1523 0.015 0.15 0.5 3.0 25 OUTLET
C1524 0.015 0.15 0.5 3.0 25 OUTLET
C1525 0.015 0.15 0.5 3.0 25 OUTLET
C1526 0.015 0.15 0.5 3.0 25 OUTLET
C1527 0.015 0.15 0.5 3.0 25 OUTLET
C1528 0.015 0.15 0.5 3.0 25 OUTLET
C1529 0.015 0.15 0.5 3.0 25 OUTLET
C1530 0.015 0.15 0.5 3.0 25 OUTLET
C1531 0.015 0.15 0.5 3.0 25 OUTLET
C1532 0.015 0.15 0.5 3.0 25 OUTLET
C1533 0.015 0.15 0.5 3.0 25 OUTLET
C1534 0.015 0.15 0.5 3.0 25 OUTLET
C1535 0.015 0.15 0.5 3.0 25 OUTLET
C1536 0.015 0.15 0.5 3.0 25 OUTLET
C1537 0.015 0.15 0.5 3.0 25 OUTLET
C1538 0.015 0.15 0.5 3.0 25 OUTLET
C1539 0.015 0.15 0.5 3.0 25 OUTLET
C1540 0.015 0.15 0.5 3.0 25 OUTLET
C1541 0.015 0.15 0.5 3.0 25 OUTLET
C1542 0.015 0.15 0.5 3.0 25 OUTLET
C1543 0.015 0.15 0.5 3.0 25 OUTLET
C1544 0.015 0.15 0.5 3.0 25 OUTLET
C1545 0.015 0.15 0.5 3.0 25 OUTLET
C1546 0.015 0.15 0.5 3.0 25 OUTLET
C1547 0.015 0.15 0.5 3.0 25 OUTLET
C1548 0.015 0.15 0.5 3.0 25 OUTLET
C1549 0.015 0.15 0.5 3.0 25 OUTLET
C1550 0.015 0.15 0.5 3.0 25 OUTLET
C1551 0.015 0.15 0.5 3.0 25 OUTLET
C1552 0.015 0.15 0.5 3.0 25 OUTLET
C1553 0.015 0.15 0.5 3.0 25 OUTLET
C1554 0.015 0.15 0.5 3.0 25 OUTLET
C1555 0.015 0.15 0.5 3.0 25 OUTLET
C1556 0.015 0.15 0.5 3.0 25 OUTLET
C1557 0.015 0.15 0.5 3.0 25 OUTLET
C1558 0.015 0.15 0.5 3.0 25 OUTLET
C1559 0.015 0.15 0.5 3.0 25 OUTLET
C1560 0.015 0.15 0.5 3.0 25 OUTLET
C1561 0.015 0.15 0.5 3.0 25 OUTLET
C1562 0.015 0.15 0.5 3.0 25 OUTLET
C1563 0.015 0.15 0.5 3.0 25 OUTLET
C1564 0.015 0.15 0.5 3.0 25 OUTLET
C1565 0.015 0.15 0.5 3.0 25 OUTLET
C1566 0.015 0.15 0.5 3.0 25 OUTLET
C1567 0.015 0.15 0.5 3.0 25 OUTLET
C1568 0.015 0.15 0.5 3.0 25 OUTLET
C1569 0.015 0.15 0.5 3.0 25 OUTLET
C1570 0.015 0.15 0.5 3.0 25 OUTLET
C1571 0.015 0.15 0.5 3.0 25 OUTLET
C1572 0.015 0.15 0.5 3.0 25 OUTLET
C1573 0.015 0.15 0.5 3.0 25 OUTLET
C1574 0.015 0.15 0.5 3.0 25 OUTLET
C1575 0.015 0.15 0.5 3.0 25 OUTLET
C1576 0.015 0.15 0.5 3.0 25 OUTLET
C1577 0.015 0.15 0.5 3.0 25 OUTLET
C1578 0.015 0.15 0.5 3.0 25 OUTLET
C1579 0.015 0.15 0.5 3.0 25 OUTLET
C1580 0.015 0.15 0.5 3.0 25 OUTLET
C1581 0.015 0.15 0.5 3.0 25 OUTLET
C1582 0.015 0.15 0.5 3.0 25 OUTLET
C1583 0.015 0.15 0.5 3.0 25 OUTLET
C1584 0.015 0.15 0.5 3.0 25 OUTLET
C1585 0.015 0.15 0.5 3.0 25 OUTLET
C1586 0.015 0.15 0.5 3.0 25 OUTLET
C1587 0.015 0.15 0.5 3.0 25 OUTLET
C1588 0.015 0.15 0.5 3.0 25 OUTLET
C1589 0.015 0.15 0.5 3.0 25 OUTLET
C1590 0.015 0.15 0.5 3.0 25 OUTLET
C1591 0.015 0.15 0.5 3.0 25 OUTLET
C1592 0.015 0.15 0.5 3.0 25 OUTLET
C1593 0.015 0.15 0.5 3.0 25 OUTLET
C1594 0.015 0.15 0.5 3.0 25 OUTLET
C1595 0.015 0.15 0.5 3.0 25 OUTLET
C1596 0.015 0.15 0.5 3.0 25 OUTLET
C1597 0.015 0.15 0.5 3.0 25 OUTLET
C1598 0.015 0.15 0.5 3.0 25 OUTLET
C1599 0.015 0.15 0.5 3.0 25 OUTLET
C1600 0.015 0.15 0.5 3.0 25 OUTLET
C1601 0.015 0.15 0.5 3.0 25 OUTLET
C1602 0.015 0.15 0.5 3.0 25 OUTLET
C1603 0.015 0.15 0.5 3.0 25 OUTLET
C1604 0.015 0.15 0.5 3.0 25 OUTLET
C1605 0.015 0.15 0.5 3.0 25 OUTLET
C1606 0.015 0.15 0.5 3.0 25 OUTLET
C1607 0.015 0.15 0.5 3.0 25 OUTLET
C1608 0.015 0.15 0.5 3.0 25 OUTLET
C1609 0.015 0.15 0.5 3.0 25 OUTLET
C1610 0.015 0.15 0.5 3.0 25 OUTLET
C1611 0.015 0.15 0.5 3.0 25 OUTLET
C1612 0.015 0.15 0.5 3.0 25 OUTLET
C1613 0.015 0.15 0.5 3.0 25 OUTLET
C1614 0.015 0.15 0.5 3.0 25 OUTLET
C1615 0.015 0.15 0.5 3.0 25 OUTLET
C1616 0.015 0.15 0.5 3.0 25 OUTLET
C1617 0.015 0.15 0.5 3.0 25 OUTLET
C1618 0.015 0.15 0.5 3.0 25 OUTLET
C1619 0.015 0.15 0.5 3.0 25 OUTLET
C1620 0.015 0.15 0.5 3.0 25 OUTLET
C1621 0.015 0.15 0.5 3.0 25 OUTLET
C1622 0.015 0.15 0.5 3.0 25 OUTLET
C1623 0.015 0.15 0.5 3.0 25 OUTLET
C1624 0.015 0.15 0.5 3.0 25 OUTLET
C1625 0.015 0.15 0.5 3.0 25 OUTLET
C1626 0.015 0.15 0.5 3.0 25 OUTLET
C1627 0.015 0.15 0.5 3.0 25 OUTLET
C1628 0.015 0.15 0.5 3.0 25 OUTLET
C1629 0.015 0.15 0.5 3.0 25 OUTLET
C1630 0.015 0.15 0.5 3.0 25 OUTLET
C1631 0.015 0.15 0.5 3.0 25 OUTLET
C1632 0.015 0.15 0.5 3.0 25 OUTLET
C1633 0.015 0.15 0.5 3.0 25 OUTLET
C1634 0.015 0.15 0.5 3.0 25 OUTLET
C1635 0.015 0.15 0.5 3.0 25 OUTLET
C1636 0.015 0.15 0.5 3.0 25 OUTLET
C1637 0.015 0.15 0.5 3.0 25 OUTLET
C1638 0.015 0.15 0.5 3.0 25 OUTLET
C1639 0.015 0.15 0.5 3.0 25 OUTLET
C1640 0.015 0.15 0.5 3.0 25 OUTLET
C1641 0.015 0.15 0.5 3.0 25 OUTLET
C1642 0.015 0.15 0.5 3.0 25 OUTLET
C1643 0.015 0.15 0.5 3.0 25 OUTLET
C1644 0.015 0.15 0.5 3.0 25 OUTLET
C1645 0.015 0.15 0.5 3.0 25 OUTLET
C1646 0.015 0.15 0.5 3.0 25 OUTLET
C1647 0.015 0.15 0.5 3.0 25 OUTLET
C1648 0.015 0.15 0.5 3.0 25 OUTLET
C1649 0.015 0.15 0.5 3.0 25 OUTLET
C1650 0.015 0.15 0.5 3.0 25 OUTLET
C1651 0.015 0.15 0.5 3.0 25 OUTLET
C1652 0.015 0.15 0.5 3.0 25 OUTLET
C1653 0.015 0.15 0.5 3.0 25 OUTLET
C1654 0.015 0.15 0.5 3.0 25 OUTLET
C1655 0.015 0.15 0.5 3.0 25 OUTLET
C1656 0.015 0.15 0.5 3.0 25 OUTLET
C1657 0.015 0.15 0.5 3.0 25 OUTLET
C1658 0.015 0.15 0.5 3.0 25 OUTLET
C1659 0.015 0.15 0.5 3.0 25 OUTLET
C1660 0.015 0.15 0.5 3.0 25 OUTLET
C1661 0.015 0.15 0.5 3.0 25 OUTLET
C1662 0.015 0.15 0.5 3.0 25 OUTLET
C1663 0.015 0.15 0.5 3.0 25 OUTLET
C1664 0.015 0.15 0.5 3.0 25 OUTLET
C1665 0.015 0.15 0.5 3.0 25 OUTLET
C1666 0.015 0.15 0.5 3.0 25 OUTLET
C1667 0.015 0.15 0.5 3.0 25 OUTLET
C1668 0.015 0.15 0.5 3.0 25 OUTLET
C1669 0.015 0.15 0.5 3.0 25 OUTLET
C1670 0.015 0.15 0.5 3.0 25 OUTLET
C1671 0.015 0.15 0.5 3.0 25 OUTLET
C1672 0.015 0.15 0.5 3.0 25 OUTLET
C1673 0.015 0.15 0.5 3.0 25 OUTLET
C1674 0.015 0.15 0.5 3.0 25 OUTLET
C1675 0.015 0.15 0.5 3.0 25 OUTLET
C1676 0.015 0.15 0.5 3.0 25 OUTLET
C1677 0.015 0.15 0.5 3.0 25 OUTLET
C1678 0.015 0.15 0.5 3.0 25 OUTLET
C1679 0.015 0.15 0.5 3.0 25 OUTLET
C1680 0.015 0.15 0.5 3.0 25 OUTLET
C1681 0.015 0.15 0.5 3.0 25 OUTLET
C1682 0.015 0.15 0.5 3.0 25 OUTLET
C1683 0.015 0.15 0.5 3.0 25 OUTLET
C1684 0.015 0.15 0.5 3.0 25 OUTLET
C1685 0.015 0.15 0.5 3.0 25 OUTLET
C1686 0.015 0.15 0.5 3.0 25 OUTLET
C1687 0.015 0.15 0.5 3.0 25 OUTLET
C1688 0.015 0.15 0.5 3.0 25 OUTLET
C1689 0.015 0.15 0.5 3.0 25 OUTLET
C1690 0.015 0.15 0.5 3.0 25 OUTLET
C1691 0.015 0.15 0.5 3.0 25 OUTLET
C1692 0.015 0.15 0.5 3.0 25 OUTLET
C1693 0.015 0.15 0.5 3.0 25 OUTLET
C1694 0.015 0.15 0.5 3.0 25 OUTLET
C1695 0.015 0.15 0.5 3.0 25 OUTLET
C1696 0.015 0.15 0.5 3.0 25 OUTLET
C1697 0.015 0.15 0.5 3.0 25 OUTLET
C1698 0.015 0.15 0.5 3.0 25 OUTLET
C1699 0.015 0.15 0.5 3.0 25 OUTLET
C1700 0.015 0.15 0.5 3.0 25 OUTLET
C1701 0.015 0.15 0.5 3.0 25 OUTLET
C1702 0.015 0.15 0.5 3.0 25 OUTLET
C1703 0.015 0.15 0.5 3.0 25 OUTLET
C1704 0.015 0.15 0.5 3.0 25 OUTLET
C1705 0.015 0.15 0.5 3.0 25 OUTLET
C1706 0.015 0.15 0.5 3.0 25 OUTLET
C1707 0.015 0.15 0.5 3.0 25 OUTLET
C1708 0.015 0.15 0.5 3.0 25 OUTLET
C1709 0.015 0.15 0.5 3.0 25 OUTLET
C1710 0.015 0.15 0.5 3.0 25 OUTLET
C1711 0.015 0.15 0.5 3.0 25 OUTLET
C1712 0.015 0.15 0.5 3.0 25 OUTLET
C1713 0.015 0.15 0.5 3.0 25 OUTLET
C1714 0.015 0.15 0.5 3.0 25 OUTLET
C1715 0.015 0.15 0.5 3.0 25 OUTLET
C1716 0.015 0.15 0.5 3.0 25 OUTLET
C1717 0.015 0.15 0.5 3.0 25 OUTLET
C1718 0.015 0.15 0.5 3.0 25 OUTLET
C1719 0.015 0.15 0.5 3.0 25 OUTLET
C1720 0.015 0.15 0.5 3.0 25 OUTLET
C1721 0.015 0.15 0.5 3.0 25 OUTLET
C1722 0.015 0.15 0.5 3.0 25 OUTLET
C1723 0.015 0.15 0.5 3.0 25 OUTLET
C1724 0.015 0.15 0.5 3.0 25 OUTLET
C1725 0.015 0.15 0.5 3.0 25 OUTLET
C1726 0.015 0.15 0.5 3.0 25 OUTLET
C1727 0.015 0.15 0.5 3.0 25 OUTLET
C1728 0.015 0.15 0.5 3.0 25 OUTLET
C1729 0.015 0.15 0.5 3.0 25 OUTLET
C1730 0.015 0.15 0.5 3.0 25 OUTLET
C1731 0.015 0.15 0.5 3.0 25 OUTLET
C1732 0.015 0.15 0.5 3.0 25 OUTLET
C1733 0.015 0.15 0.5 3.0 25 OUTLET
C1734 0.015 0.15 0.5 3.0 25 OUTLET
C1735 0.015 0.15 0.5 3.0 25 OUTLET
C1736 0.015 0.15 0.5 3.0 25 OUTLET
C1737 0.015 0.15 0.5 3.0 25 OUTLET
C1738 0.015 0.15 0.5 3.0 25 OUTLET
C1739 0.015 0.15 0.5 3.0 25 OUTLET
C1740 0.015 0.15 0.5 3.0 25 OUTLET
C1741 0.015 0.15 0.5 3.0 25 OUTLET
C1742 0.015 0.15 0.5 3.0 25 OUTLET
C1743 0.015 0.15 0.5 3.0 25 OUTLET
C1744 0.015 0.15 0.5 3.0 25 OUTLET
C1745 0.015 0.15 0.5 3.0 25 OUTLET
C1746 0.015 0.15 0.5 3.0 25 OUTLET
C1747 0.015 0.15 0.5 3.0 25 OUTLET
C1748 0.015 0.15 0.5 3.0 25 OUTLET
C1749 0.015 0.15 0.5 3.0 25 OUTLET
C1750 0.015 0.15 0.5 3.0 25 OUTLET
C1751 0.015 0.15 0.5 3.0 25 OUTLET
C1752 0.015 0.15 0.5 3.0 25 OUTLET
C1753 0.015 0.15 0.5 3.0 25 OUTLET
C1754 0.015 0.15 0.5 3.0 25 OUTLET
C1755 0.015 0.15 0.5 3.0 25 OUTLET
C1756 0.015 0.15 0.5 3.0 25 OUTLET
C1757 0.015 0.15 0.5 3.0 25 OUTLET
C1758 0.015 0.15 0.5 3.0 25 OUTLET
C1759 0.015 0.15 0.5 3.0 25 OUTLET
C1760 0.015 0.15 0.5 3.0 25 OUTLET
C1761 0.015 0.15 0.5 3.0 25 OUTLET
C1762 0.015 0.15 0.5 3.0 25 OUTLET
C1763 0.015 0.15 0.5 3.0 25 OUTLET
C1764 0.015 0.15 0.5 3.0 25 OUTLET
C1765 0.015 0.15 0.5 3.0 25 OUTLET
C1766 0.015 0.15 0.5 3.0 25 OUTLET
C1767 0.015 0.15 0.5 3.0 25 OUTLET
C1768 0.015 0.15 0.5 3.0 25 OUTLET
C1769 0.015 0.15 0.5 3.0 25 OUTLET
C1770 0.015 0.15 0.5 3.0 25 OUTLET
C1771 0.015 0.15 0.5 3.0 25 OUTLET
C1772 0.015 0.15 0.5 3.0 25 OUTLET
C1773 0.015 0.15 0.5 3.0 25 OUTLET
C1774 0.015 0.15 0.5 3.0 25 OUTLET
C1775 0.015 0.15 0.5 3.0 25 OUTLET
C1776 0.015 0.15 0.5 3.0 25 OUTLET
C1777 0.015 0.15 0.5 3.0 25 OUTLET
C1778 0.015 0.15 0.5 3.0 25 OUTLET
C1779 0.015 0.15 0.5 3.0 25 OUTLET
C1780 0.015 0.15 0.5 3.0 25 OUTLET
C1781 0.015 0.15 0.5 3.0 25 OUTLET
C1782 0.015 0.15 0.5 3.0 25 OUTLET
C1783 0.015 0.15 0.5 3.0 25 OUTLET
C1784 0.015 0.15 0.5 3.0 25 OUTLET
C1785 0.015 0.15 0.5 3.0 25 OUTLET
C1786 0.015 0.15 0.5 3.0 25 OUTLET
C1787 0.015 0.15 0.5 3.0 25 OUTLET
C1788 0.015 0.15 0.5 3.0 25 OUTLET
C1789 0.015 0.15 0.5 3.0 25 OUTLET
C1790 0.015 0.15 0.5 3.0 25 OUTLET
C1791 0.015 0.15 0.5 3.0 25 OUTLET
C1792 0.015 0.15 0.5 3.0 25 OUTLET
C1793 0.015 0.15 0.5 3.0 25 OUTLET
C1794 0.015 0.15 0.5 3.0 25 OUTLET
C1795 0.015 0.15 0.5 3.0 25 OUTLET
C1796 0.015 0.15 0.5 3.0 25 OUTLET
C1797 0.015 0.15 0.5 3.0 25 OUTLET
C1798 0.015 0.15 0.5 3.0 25 OUTLET
C1799 0.015 0.15 0.5 3.0 25 OUTLET
C1800 0.015 0.15 0.5 3.0 25 OUTLET
C1801 0.015 0.15 0.5 3.0 25 OUTLET
C1802 0.015 0.15 0.5 3.0 25 OUTLET
C1803 0.015 0.15 0.5 3.0 25 OUTLET
C1804 0.015 0.15 0.5 3.0 25 OUTLET
C1805 0.015 0.15 0.5 3.0 25 OUTLET
C1806 0.015 0.15 0.5 3.0 25 OUTLET
C1807 0.015 0.15 0.5 3.0 25 OUTLET
C1808 0.015 0.15 0.5 3.0 25 OUTLET
C1809 0.015 0.15 0.5 3.0 25 OUTLET
C1810 0.015 0.15 0.5 3.0 25 OUTLET
C1811 0.015 0.15 0.5 3.0 25 OUTLET
C1812 0.015 0.15 0.5 3.0 25 OUTLET
C1813 0.015 0.15 0.5 3.0 25 OUTLET
C1814 0.015 0.15 0.5 3.0 25 OUTLET
C1815 0.015 0.15 0.5 3.0 25 OUTLET
C1816 0.015 0.15 0.5 3.0 25 OUTLET
C1817 0.015 0.15 0.5 3.0 25 OUTLET
C1818 0.015 0.15 0.5 3.0 25 OUTLET
C1819 0.015 0.15 0.5 3.0 25 OUTLET
C1820 0.015 0.15 0.5 3.0 25 OUTLET
C1821 0.015 0.15 0.5 3.0 25 OUTLET
C1822 0.015 0.15 0.5 3.0 25 OUTLET
C1823 0.015 0.15 0.5 3.0 25 OUTLET
C1824 0.015 0.15 0.5 3.0 25 OUTLET
C1825 0.015 0.15 0.5 3.0 25 OUTLET
C1826 0.015 0.15 0.5 3.0 25 OUTLET
C1827 0.015 0.15 0.5 3.0 25 OUTLET
C1828 0.015 0.15 0.5 3.0 25 OUTLET
C1829 0.015 0.15 0.5 3.0 25 OUTLET
C1830 0.015 0.15 0.5 3.0 25 OUTLET
C1831 0.015 0.15 0.5 3.0 25 OUTLET
C1832 0.015 0.15 0.5 3.0 25 OUTLET
C1833 0.015 0.15 0.5 3.0 25 OUTLET
C1834 0.015 0.15 0.5 3.0 25 OUTLET
C1835 0.015 0.15 0.5 3.0 25 OUTLET
C1836 0.015 0.15 0.5 3.0 25 OUTLET
C1837 0.015 0.15 0.5 3.0 25 OUTLET
C1838 0.015 0.15 0.5 3.0 25 OUTLET
C1839 0.015 0.15 0.5 3.0 25 OUTLET
C1840 0.015 0.15 0.5 3.0 25 OUTLET
C1841 0.015 0.15 0.5 3.0 25 OUTLET
C1842 0.015 0.15 0.5 3.0 25 OUTLET
C1843 0.015 0.15 0.5 3.0 25 OUTLET
C1844 0.015 0.15 0.5 3.0 25 OUTLET
C1845 0.015 0.15 0.5 3.0 25 OUTLET
C1846 0.015 0.15 0.5 3.0 25 OUTLET
C1847 0.015 0.15 0.5 3.0 25 OUTLET
C1848 0.015 0.15 0.5 3.0 25 OUTLET
C1849 0.015 0.15 0.5 3.0 25 OUTLET
C1850 0.015 0.15 0.5 3.0 25 OUTLET
C1851 0.015 0.15 0.5 3.0 25 OUTLET
C1852 0.015 0.15 0.5 3.0 25 OUTLET
C1853 0.015 0.15 0.5 3.0 25 OUTLET
C1854 0.015 0.15 0.5 3.0 25 OUTLET
C1855 0.015 0.15 0.5 3.0 25 OUTLET
C1856 0.015 0.15 0.5 3.0 25 OUTLET
C1857 0.015 0.15 0.5 3.0 25 OUTLET
C1858 0.015 0.15 0.5 3.0 25 OUTLET
C1859 0.015 0.15 0.5 3.0 25 OUTLET
C1860 0.015 0.15 0.5 3.0 25 OUTLET
C1861 0.015 0.15 0.5 3.0 25 OUTLET
C1862 0.015 0.15 0.5 3.0 25 OUTLET
C1863 0.015 0.15 0.5 3.0 25 OUTLET
C1864 0.015 0.15 0.5 3.0 25 OUTLET
C1865 0.015 0.15 0.5 3.0 25 OUTLET
C1866 0.015 0.15 0.5 3.0 25 OUTLET
C1867 0.015 0.15 0.5 3.0 25 OUTLET
C1868 0.015 0.15 0.5 3.0 25 OUTLET
C1869 0.015 0.15 0.5 3.0 25 OUTLET
C1870 0.015 0.15 0.5 3.0 25 OUTLET
C1871 0.015 0.15 0.5 3.0 25 OUTLET
C1872 0.015 0.15 0.5 3.0 25 OUTLET
C1873 0.015 0.15 0.5 3.0 25 OUTLET
C1874 0.015 0.15 0.5 3.0 25 OUTLET
C1875 0.015 0.15 0.5 3.0 25 OUTLET
C1876 0.015 0.15 0.5 3.0 25 OUTLET
C1877 0.015 0.15 0.5 3.0 25 OUTLET
C1878 0.015 0.15 0.5 3.0 25 OUTLET
C1879 0.015 0.15 0.5 3.0 25 OUTLET
C1880 0.015 0.15 0.5 3.0 25 OUTLET
C1881 0.015 0.15 0.5 3.0 25 OUTLET
C1882 0.015 0.15 0.5 3.0 25 OUTLET
C1883 0.015 0.15 0.5 3.0 25 OUTLET
C1884 0.015 0.15 0.5 3.0 25 OUTLET
C1885 0.015 0.15 0.5 3.0 25 OUTLET
C1886 0.015 0.15 0.5 3.0 25 OUTLET
C1887 0.015 0.15 0.5 3.0 25 OUTLET
C1888 0.015 0.15 0.5 3.0 25 OUTLET
C1889 0.015 0.15 0.5 3.0 25 OUTLET
C1890 0.015 0.15 0.5 3.0 25 OUTLET
C1891 0.015 0.15 0.5 3.0 25 OUTLET
C1892 0.015 0.15 0.5 3.0 25 OUTLET
C1893 0.015 0.15 0.5 3.0 25 OUTLET
C1894 0.015 0.15 0.5 3.0 25 OUTLET
C1895 0.015 0.15 0.5 3.0 25 OUTLET
C1896 0.015 0.15 0.5 3.0 25 OUTLET
C1897 0.015 0.15 0.5 3.0 25 OUTLET
C1898 0.015 0.15 0.5 3.0 25 OUTLET
C1899 0.015 0.15 0.5 3.0 25 OUTLET
C1900 0.015 0.15 0.5 3.0 25 OUTLET
C1901 0.015 0.15 0.5 3.0 25 OUTLET
C1902 0.015 0.15 0.5 3.0 25 OUTLET
C1903 0.015 0.15 0.5 3.0 25 OUTLET
C1904 0.015 0.15 0.5 3.0 25 OUTLET
C1905 0.015 0.15 0.5 3.0 25 OUTLET
C1906 0.015 0.15 0.5 3.0 25 OUTLET
C1907 0.015 0.15 0.5 3.0 25 OUTLET
C1908 0.015 0.15 0.5 3.0 25 OUTLET
C1909 0.015 0.15 0.5 3.0 25 OUTLET
C1910 0.015 0.15 0.5 3.0 25 OUTLET
C1911 0.015 0.15 0.5 3.0 25 OUTLET
C1912 0.015 0.15 0.5 3.0 25 OUTLET
C1913 0.015 0.15 0.5 3.0 25 OUTLET
C1914 0.015 0.15 0.5 3.0 25 OUTLET
C1915 0.015 0.15 0.5 3.0 25 OUTLET
C1916 0.015 0.15 0.5 3.0 25 OUTLET
C1917 0.015 0.15 0.5 3.0 25 OUTLET
C1918 0.015 0.15 0.5 3.0 25 OUTLET
C1919 0.015 0.15 0.5 3.0 25 OUTLET
C1920 0.015 0.15 0.5 3.0 25 OUTLET
C1921 0.015 0.15 0.5 3.0 25 OUTLET
C1922 0.015 0.15 0.5 3.0 25 OUTLET
C1923 0.015 0.15 0.5 3.0 25 OUTLET
C1924 0.015 0.15 0.5 3.0 25 OUTLET
C1925 0.015 0.15 0.5 3.0 25 OUTLET
C1926 0.015 0.15 0.5 3.0 25 OUTLET
C1927 0.015 0.15 0.5 3.0 25 OUTLET
C1928 0.015 0.15 0.5 3.0 25 OUTLET
C1929 0.015 0.15 0.5 3.0 25 OUTLET
C1930 0.015 0.15 0.5 3.0 25 OUTLET
C1931 0.015 0.15 0.5 3.0 25 OUTLET
C1932 0.015 0.15 0.5 3.0 25 OUTLET
C1933 0.015 0.15 0.5 3.0 25 OUTLET
C1934 0.015 0.15 0.5 3.0 25 OUTLET
C1935 0.015 0.15 0.5 3.0 25 OUTLET
C1936 0.015 0.15 0.5 3.0 25 OUTLET
C1937 0.015 0.15 0.5 3.0 25 OUTLET
C1938 0.015 0.15 0.5 3.0 25 OUTLET
C1939 0.015 0.15 0.5 3.0 25 OUTLET
C1940 0.015 0.15 0.5 3.0 25 OUTLET
C1941 0.015 0.15 0.5 3.0 25 OUTLET
C1942 0.015 0.15 0.5 3.0 25 OUTLET
C1943 0.015 0.15 0.5 3.0 25 OUTLET
C1944 0.015 0.15 0.5 3.0 25 OUTLET
C1945 0.015 0.15 0.5 3.0 25 OUTLET
C1946 0.015 0.15 0.5 3.0 25 OUTLET
C1947 0.015 0.15 0.5 3.0 25 OUTLET
C1948 0.015 0.15 0.5 3.0 25 OUTLET
C1949 0.015 0.15 0.5 3.0 25 OUTLET
C1950 0.015 0.15 0.5 3.0 25 OUTLET
C1951 0.015 0.15 0.5 3.0 25 OUTLET
C1952 0.015 0.15 0.5 3.0 25 OUTLET
C1953 0.015 0.15 0.5 3.0 25 OUTLET
C1954 0.015 0.15 0.5 3.0 25 OUTLET
C1955 0.015 0.15 0.5 3.0 25 OUTLET
C1956 0.015 0.15 0.5 3.0 25 OUTLET
C1957 0.015 0.15 0.5 3.0 25 OUTLET
C1958 0.015 0.15 0.5 3.0 25 OUTLET
C1959 0.015 0.15 0.5 3.0 25 OUTLET
C1960 0.015 0.15 0.5 3.0 25 OUTLET
C1961 0.015 0.15 0.5 3.0 25 OUTLET
C1962 0.015 0.15 0.5 3.0 25 OUTLET
C1963 0.015 0.15 0.5 3.0 25 OUTLET
C1964 0.015 0.15 0.5 3.0 25 OUTLET
C1965 0.015 0.15 0.5 3.0 25 OUTLET
C1966 0.015 0.15 0.5 3.0 25 OUTLET
C1967 0.015 0.15 0.5 3.0 25 OUTLET
C1968 0.015 0.15 0.5 3.0 25 OUTLET
C1969 0.015 0.15 0.5 3.0 25 OUTLET
C1970 0.015 0.15 0.5 3.0 25 OUTLET
C1971 0.015 0.15 0.5 3.0 25 OUTLET
C1972 0.015 0.15 0.5 3.0 25 OUTLET
C1973 0.015 0.15 0.5 3.0 25 OUTLET
C1974 0.015 0.15 0.5 3.0 25 OUTLET
C1975 0.015 0.15 0.5 3.0 25 OUTLET
C1976 0.015 0.15 0.5 3.0 25 OUTLET
C1977 0.015 0.15 0.5 3.0 25 OUTLET
C1978 0.015 0.15 0.5 3.0 25 OUTLET
C1979 0.015 0.15 0.5 3.0 25 OUTLET
C1980 0.015 0.15 0.5 3.0 25 OUTLET
C1981 0.015 0.15 0.5 3.0 25 OUTLET
C1982 0.015 0.15 0.5 3.0 25 OUTLET
C1983 0.015 0.15 0.5 3.0 25 OUTLET
C1984 0.015 0.15 0.5 3.0 25 OUTLET
C1985 0.015 0.15 0.5 3.0 25 OUTLET
C1986 0.015 0.15 0.5 3.0 25 OUTLET
C1987 0.015 0.15 0.5 3.0 25 OUTLET
C1988 0.015 0.15 0.5 3.0 25 OUTLET
C1989 0.015 0.15 0.5 3.0 25 OUTLET
C1990 0.015 0.15 0.5 3.0 25 OUTLET
C1991 0.015 0.15 0.5 3.0 25 OUTLET
C1992 0.015 0.15 0.5 3.0 25 OUTLET
C1993 0.015 0.15 0.5 3.0 25 OUTLET
C1994 0.015 0.15 0.5 3.0 25 OUTLET
C1995 0.015 0.15 0.5 3.0 25 OUTLET
C1996 0.015 0.15 0.5 3.0 25 OUTLET
C1997 0.015 0.15 0.5 3.0 25 OUTLET
C1998 0.015 0.15 0.5 3.0 25 OUTLET
C1999 0.015 0.15 0.5 3.0 25 OUTLET
C2000 0.015 0.15 0.5 3.0 25 OUTLET
C2001 0.015 0.15 0.5 3.0 25 OUTLET
C2002 0.015 0.15 0.5 3.0 25 OUTLET
C2003 0.015 0.15 0.5 3.0 25 OUTLET
C2004 0.015 0.15 0.5 3.0 25 OUTLET
C2005 0.015 0.15 0.5 3.0 25 OUTLET
C2006 0.015 0.15 0.5 3.0 25 OUTLET
C2007 0.015 0.15 0.5 3.0 25 OUTLET
C2008 0.015 0.15 0.5 3.0 25 OUTLET
C2009 0.015 0.15 0.5 3.0 25 OUTLET
C2010 0.015 0.15 0.5 3.0 25 OUTLET
C2011 0.015 0.15 0.5 3.0 25 OUTLET
C2012 0.015 0.15 0.5 3.0 25 OUTLET
C2013 0.015 0.15 0.5 3.0 25 OUTLET
C2014 0.015 0.15 0.5 3.0 25 OUTLET
C2015 0.015 0.15 0.5 3.0 25 OUTLET
C2016 0.015 0.15 0.5 3.0 25 OUTLET
C2017 0.015 0.15 0.5 3.0 25 OUTLET
C2018 0.015 0.15 0.5 3.0 25 OUTLET
C2019 0.015 0.15 0.5 3.0 25 OUTLET
C2020 0.015 0.15 0.5 3.0 25 OUTLET
C2021 0.015 0.15 0.5 3.0 25 OUTLET
C2022 0.015 0.15 0.5 3.0 25 OUTLET
C2023 0.015 0.15 0.5 3.0 25 OUTLET
C2024 0.015 0.15 0.5 3.0 25 OUTLET
C2025 0.015 0.15 0.5 3.0 25 OUTLET
C2026 0.015 0.15 0.5 3.0 25 OUTLET
C2027 0.015 0.15 0.5 3.0 25 OUTLET
C2028 0.015 0.15 0.5 3.0 25 OUTLET
C2029 0.015 0.15 0.5 3.0 25 OUTLET
C2030 0.015 0.15 0.5 3.0 25 OUTLET
C2031 0.015 0.15 0.5 3.0 25 OUTLET
C2032 0.015 0.15 0.5 3.0 25 OUTLET
C2033 0.015 0.15 0.5 3.0 25 OUTLET
C2034 0.015 0.15 0.5 3.0 25 OUTLET
C2035 0.015 0.15 0.5 3.0 25 OUTLET
C2036 0.015 0.15 0.5 3.0 25 OUTLET
C2037 0.015 0.15 0.5 3.0 25 OUTLET
C2038 0.015 0.15 0.5 3.0 25 OUTLET
C2039 0.015 0.15 0.5 3.0 25 OUTLET
C2040 0.015 0.15 0.5 3.0 25 OUTLET
C2041 0.015 0.15 0.5 3.0 25 OUTLET
C2042 0.015 0.15 0.5 3.0 25 OUTLET
C2043 0.015 0.15 0.5 3.0 25 OUTLET
C2044 0.015 0.15 0.5 3.0 25 OUTLET
C2045 0.015 0.15 0.5 3.0 25 OUTLET
C2046 0.015 0.15 0.5 3.0 25 OUTLET
C2047 0.015 0.15 0.5 3.0 25 OUTLET
C2048 0.015 0.15 0.5 3.0 25 OUTLET
C2049 0.015 0.15 0.5 3.0 25 OUTLET
C2050 0.015 0.15 0.5 3.0 25 OUTLET
C2051 0.015 0.15 0.5 3.0 25 OUTLET
C2052 0.015 0.15 0.5 3.0 25 OUTLET
C2053 0.015 0.15 0.5 3.0 25 OUTLET
C2054 0.015 0.15 0.5 3.0 25 OUTLET
C2055 0.015 0.15 0.5 3.0 25 OUTLET
C2056 0.015 0.15 0.5 3.0 25 OUTLET
C2057 0.015 0.15 0.5 3.0 25 OUTLET
C2058 0.015 0.15 0.5 3.0 25 OUTLET
C2059 0.015 0.15 0.5 3.0 25 OUTLET
C2060 0.015 0.15 0.5 3.0 25 OUTLET
C2061 0.015 0.15 0.5 3.0 25 OUTLET
C2062 0.015 0.15 0.5 3.0 25 OUTLET
C2063 0.015 0.15 0.5 3.0 25 OUTLET
C2064 0.015 0.15 0.5 3.0 25 OUTLET
C2065 0.015 0.15 0.5 3.0 25 OUTLET
C2066 0.015 0.15 0.5 3.0 25 OUTLET
C2067 0.015 0.15 0.5 3.0 25 OUTLET
C2068 0.015 0.15 0.5 3.0 25 OUTLET
C2069 0.015 0.15 0.5 3.0 25 OUTLET
C2070 0.015 0.15 0.5 3.0 25 OUTLET
C2071 0.015 0.15 0.5 3.0 25 OUTLET
C2072 0.015 0.15 0.5 3.0 25 OUTLET
C2073 0.015 0.15 0.5 3.0 25 OUTLET
C2074 0.015 0.15 0.5 3.0 25 OUTLET
C2075 0.015 0.15 0.5 3.0 25 OUTLET
C2076 0.015 0.15 0.5 3.0 25 OUTLET
C2077 0.015 0.15 0.5 3.0 25 OUTLET
C2078 0.015 0.15 0.5 3.0 25 OUTLET
C2079 0.015 0.15 0.5 3.0 25 OUTLET
C2080 0.015 0.15 0.5 3.0 25 OUTLET
C2081 0.015 0.15 0.5 3.0 25 OUTLET
C2082 0.015 0.15 0.5 3.0 25 OUTLET
C2083 0.015 0.15 0.5 3.0 25 OUTLET
C2084 0.015 0.15 0.5 3.0 25 OUTLET
C2085 0.015 0.15 0.5 3.0 25 OUTLET
C2086 0.015 0.15 0.5 3.0 25 OUTLET
C2087 0.015 0.15 0.5 3.0 25 OUTLET
C2088 0.015 0.15 0.5 3.0 25 OUTLET
C2089 0.015 0.15 0.5 3.0 25 OUTLET
C2090 0.015 0.15 0.5 3.0 25 OUTLET
C2091 0.015 0.15 0.5 3.0 25 OUTLET
C2092 0.015 0.15 0.5 3.0 25 OUTLET
C2093 0.015 0.15 0.5 3.0 25 OUTLET
C2094 0.015 0.15 0.5 3.0 25 OUTLET
C2095 0.015 0.15 0.5 3.0 25 OUTLET
C2096 0.015 0.15 0.5 3.0 25 OUTLET
C2097 0.015 0.15 0.5 3.0 25 OUTLET
C2098 0.015 0.15 0.5 3.0 25 OUTLET
C2099 0.015 0.15 0.5 3.0 25 OUTLET
C2100 0.015 0.15 0.5 3.0 25 OUTLET
C2101 0.015 0.15 0.5 3.0 25 OUTLET
C2102 0.015 0.15 0.5 3.0 25 OUTLET
C2103 0.015 0.15 0.5 3.0 25 OUTLET
C2104 0.015 0.15 0.5 3.0 25 OUTLET
C2105 0.015 0.15 0.5 3.0 25 OUTLET
C2106 0.015 0.15 0.5 3.0 25 OUTLET
C2107 0.015 0.15 0.5 3.0 25 OUTLET
C2108 0.015 0.15 0.5 3.0 25 OUTLET
C2109 0.015 0.15 0.5 3.0 25 OUTLET
C2110 0.015 0.15 0.5 3.0 25 OUTLET
C2111 0.015 0.15 0.5 3.0 25 OUTLET
C2112 0.015 0.15 0.5 3.0 25 OUTLET
C2113 0.015 0.15 0.5 3.0 25 OUTLET
C2114 0.015 0.15 0.5 3.0 25 OUTLET
C2115 0.015 0.15 0.5 3.0 25 OUTLET
C2116 0.015 0.15 0.5 3.0 25 OUTLET
C2117 0.015 0.15 0.5 3.0 25 OUTLET
C2118 0.015 0.15 0.5 3.0 25 OUTLET
C2119 0.015 0.15 0.5 3.0 25 OUTLET
C2120 0.015 0.15 0.5 3.0 25 OUTLET
C2121 0.015 0.15 0.5 3.0 25 OUTLET
C2122 0.015 0.15 0.5 3.0 25 OUTLET
C2123 0.015 0.15 0.5 3.0 25 OUTLET
C2124 0.015 0.15 0.5 3.0 25 OUTLET
C2125 0.015 0.15 0.5 3.0 25 OUTLET
C2126 0.015 0.15 0.5 3.0 25 OUTLET
C2127 0.015 0.15 0.5 3.0 25 OUTLET
C2128 0.015 0.15 0.5 3.0 25 OUTLET
C2129 0.015 0.15 0.5 3.0 25 OUTLET
C2130 0.015 0.15 0.5 3.0 25 OUTLET
C2131 0.015 0.15 0.5 3.0 25 OUTLET
C2132 0.015 0.15 0.5 3.0 25 OUTLET
C2133 0.015 0.15 0.5 3.0 25 OUTLET
C2134 0.015 0.15 0.5 3.0 25 OUTLET
C2135 0.015 0.15 0.5 3.0 25 OUTLET
C2136 0.015 0.15 0.5 3.0 25 OUTLET
C2137 0.015 0.15 0.5 3.0 25 OUTLET
C2138 0.015 0.15 0.5 3.0 25 OUTLET
C2139 0.015 0.15 0.5 3.0 25 OUTLET
C2140 0.015 0.15 0.5 3.0 25 OUTLET
C2141 0.015 0.15 0.5 3.0 25 OUTLET
C2142 0.015 0.15 0.5 3.0 25 OUTLET
C2143 0.015 0.15 0.5 3.0 25 OUTLET
C2144 0.015 0.15 0.5 3.0 25 OUTLET
C2145 0.015 0.15 0.5 3.0 25 OUTLET
C2146 0.015 0.15 0.5 3.0 25 OUTLET
C2147 0.015 0.15 0.5 3.0 25 OUTLET
C2148 0.015 0.15 0.5 3.0 25 OUTLET
C2149 0.015 0.15 0.5 3.0 25 OUTLET
C2150 0.015 0.15 0.5 3.0 25 OUTLET
C2151 0.015 0.15 0.5 3.0 25 OUTLET
C2152 0.015 0.15 0.5 3.0 25 OUTLET
C2153 0.015 0.15 0.5 3.0 25 OUTLET
C2154 0.015 0.15 0.5 3.0 25 OUTLET
C2155 0.015 0.15 0.5 3.0 25 OUTLET
C2156 0.015 0.15 0.5 3.0 25 OUTLET
C2157 0.015 0.15 0.5 3.0 25 OUTLET
C2158 0.015 0.15 0.5 3.0 25 OUTLET
C2159 0.015 0.15 0.5 3.0 25 OUTLET
C2160 0.015 0.15 0.5 3.0 25 OUTLET
C2161 0.015 0.15 0.5 3.0 25 OUTLET
C2162 0.015 0.15 0.5 3.0 25 OUTLET
C2163 0.015 0.15 0.5 3.0 25 OUTLET
C2164 0.015 0.15 0.5 3.0 25 OUTLET
C2165 0.015 0.15 0.5 3.0 25 OUTLET
C2166 0.015 0.15 0.5 3.0 25 OUTLET
C2167 0.015 0.15 0.5 3.0 25 OUTLET
C2168 0.015 0.15 0.5 3.0 25 OUTLET
C2169 0.015 0.15 0.5 3.0 25 OUTLET
C2170 0.015 0.15 0.5 3.0 25 OUTLET
C2171 0.015 0.15 0.5 3.0 25 OUTLET
C2172 0.015 0.15 0.5 3.0 25 OUTLET
C2173 0.015 0.15 0.5 3.0 25 OUTLET
C2174 0.015 0.15 0.5 3.0 25 OUTLET
C2175 0.015 0.15 0.5 3.0 25 OUTLET
C2176 0.015 0.15 0.5 3.0 25 OUTLET
C2177 0.015 0.15 0.5 3.0 25 OUTLET
C2178 0.015 0.15 0.5 3.0 25 OUTLET
C2179 0.015 0.15 0.5 3.0 25 OUTLET
C2180 0.015 0.15 0.5 3.0 25 OUTLET
C2181 0.015 0.15 0.5 3.0 25 OUTLET
C2182 0.015 0.15 0.5 3.0 25 OUTLET
C2183 0.015 0.15 0.5 3.0 25 OUTLET
C2184 0.015 0.15 0.5 3.0 25 OUTLET
C2185 0.015 0.15 0.5 3.0 25 OUTLET
C2186 0.015 0.15 0.5 3.0 25 OUTLET
C2187 0.015 0.15 0.5 3.0 25 OUTLET
C2188 0.015 0.15 0.5 3.0 25 OUTLET
C2189 0.015 0.15 0.5 3.0 25 OUTLET
C2190 0.015 0.15 0.5 3.0 25 OUTLET
C2191 0.015 0.15 0.5 3.0 25 OUTLET
C2192 0.015 0.15 0.5 3.0 25 OUTLET
C2193 0.015 0.15 0.5 3.0 25 OUTLET
C2194 0.015 0.15 0.5 3.0 25 OUTLET
C2195 0.015 0.15 0.5 3.0 25 OUTLET
C2196 0.015 0.15 0.5 3.0 25 OUTLET
C2197 0.015 0.15 0.5 3.0 25 OUTLET
C2198 0.015 0.15 0.5 3.0 25 OUTLET
C2199 0.015 0.15 0.5 3.0 25 OUTLET
C2200 0.015 0.15 0.5 3.0 25 OUTLET
C2201 0.015 0.15 0.5 3.0 25 OUTLET
C2202 0.015 0.15 0.5 3.0 25 OUTLET
C2203 0.015 0.15 0.5 3.0 25 OUTLET
C2204 0.015 0.15 0.5 3.0 25 OUTLET
C2205 0.015 0.15 0.5 3.0 25 OUTLET
C2206 0.015 0.15 0.5 3.0 25 OUTLET
C2207 0.015 0.15 0.5 3.0 25 OUTLET
C2208 0.015 0.15 0.5 3.0 25 OUTLET
C2209 0.015 0.15 0.5 3.0 25 OUTLET
C2210 0.015 0.15 0.5 3.0 25 OUTLET
C2211 0.015 0.15 0.5 3.0 25 OUTLET
C2212 0.015 0.15 0.5 3.0 25 OUTLET
C2213 0.015 0.15 0.5 3.0 25 OUTLET
C2214 0.015 0.15 0.5 3.0 25 OUTLET
C2215 0.015 0.15 0.5 3.0 25 OUTLET
C2216 0.015 0.15 0.5 3.0 25 OUTLET
C2217 0.015 0.15 0.5 3.0 25 OUTLET
C2218 0.015 0.15 0.5 3.0 25 OUTLET
C2219 0.015 0.15 0.5 3.0 25 OUTLET
C2220 0.015 0.15 0.5 3.0 25 OUTLET
C2221 0.015 0.15 0.5 3.0 25 OUTLET
C2222 0.015 0.15 0.5 3.0 25 OUTLET
C2223 0.015 0.15 0.5 3.0 25 OUTLET
C2224 0.015 0.15 0.5 3.0 25 OUTLET
C2225 0.015 0.15 0.5 3.0 25 OUTLET
C2226 0.015 0.15 0.5 3.0 25 OUTLET
C2227 0.015 0.15 0.5 3.0 25 OUTLET
C2228 0.015 0.15 0.5 3.0 25 OUTLET
C2229 0.015 0.15 0.5 3.0 25 OUTLET
C2230 0.015 0.15 0.5 3.0 25 OUTLET
C2231 0.015 0.15 0.5 3.0 25 OUTLET
C2232 0.015 0.15 0.5 3.0 25 OUTLET
C2233 0.015 0.15 0.5 3.0 25 OUTLET
C2234 0.015 0.15 0.5 3.0 25 OUTLET
C2235 0.015 0.15 0.5 3.0 25 OUTLET
C2236 0.015 0.15 0.5 3.0 25 OUTLET
C2237 0.015 0.15 0.5 3.0 25 OUTLET
C2238 0.015 0.15 0.5 3.0 25 OUTLET
C2239 0.015 0.15 0.5 3.0 25 OUTLET
C2240 0.015 0.15 0.5 3.0 25 OUTLET
C2241 0.015 0.15 0.5 3.0 25 OUTLET
C2242 0.015 0.15 0.5 3.0 25 OUTLET
C2243 0.015 0.15 0.5 3.0 25 OUTLET
C2244 0.015 0.15 0.5 3.0 25 OUTLET
C2245 0.015 0.15 0.5 3.0 25 OUTLET
C2246 0.015 0.15 0.5 3.0 25 OUTLET
C2247 0.015 0.15 0.5 3.0 25 OUTLET
C2248 0.015 0.15 0.5 3.0 25 OUTLET
C2249 0.015 0.15 0.5 3.0 25 OUTLET
C2250 0.015 0.15 0.5 3.0 25 OUTLET
C2251 0.015 0.15 0.5 3.0 25 OUTLET
C2252 0.015 0.15 0.5 3.0 25 OUTLET
C2253 0.015 0.15 0.5 3.0 25 OUTLET
C2254 0.015 0.15 0.5 3.0 25 OUTLET
C2255 0.015 0.15 0.5 3.0 25 OUTLET
C2256 0.015 0.15 0.5 3.0 25 OUTLET
C2257 0.015 0.15 0.5 3.0 25 OUTLET
C2258 0.015 0.15 0.5 3.0 25 OUTLET
C2259 0.015 0.15 0.5 3.0 25 OUTLET
C2260 0.015 0.15 0.5 3.0 25 OUTLET
C2261 0.015 0.15 0.5 3.0 25 OUTLET
C2262 0.015 0.15 0.5 3.0 25 OUTLET
C2263 0.015 0.15 0.5 3.0 25 OUTLET
C2264 0.015 0.15 0.5 3.0 25 OUTLET
C2265 0.015 0.15 0.5 3.0 25 OUTLET
C2266 0.015 0.15 0.5 3.0 25 OUTLET
C2267 0.015 0.15 0.5 3.0 25 OUTLET
C2268 0.015 0.15 0.5 3.0 25 OUTLET
C2269 0.015 0.15 0.5 3.0 25 OUTLET
C2270 0.015 0.15 0.5 3.0 25 OUTLET
C2271 0.015 0.15 0.5 3.0 25 OUTLET
C2272 0.015 0.15 0.5 3.0 25 OUTLET
C2273 0.015 0.15 0.5 3.0 25 OUTLET
C2274 0.015 0.15 0.5 3.0 25 OUTLET
C2275 0.015 0.15 0.5 3.0 25 OUTLET
C2276 0.015 0.15 0.5 3.0 25 OUTLET
C2277 0.015 0.15 0.5 3.0 25 OUTLET
C2278 0.015 0.15 0.5 3.0 25 OUTLET
C2279 0.015 0.15 0.5 3.0 25 OUTLET
C2280 0.015 0.15 0.5 3.0 25 OUTLET
C2281 0.015 0.15 0.5 3.0 25 OUTLET
C2282 0.015 0.15 0.5 3.0 25 OUTLET
C2283 0.015 0.15 0.5 3.0 25 OUTLET
C2284 0.015 0.15 0.5 3.0 25 OUTLET
C2285 0.015 0.15 0.5 3.0 25 OUTLET
C2286 0.015 0.15 0.5 3.0 25 OUTLET
C2287 0.015 0.15 0.5 3.0 25 OUTLET
C2288 0.015 0.15 0.5 3.0 25 OUTLET
C2289 0.015 0.15 0.5 3.0 25 OUTLET
C2290 0.015 0.15 0.5 3.0 25 OUTLET
C2291 0.015 0.15 0.5 3.0 25 OUTLET
C2292 0.015 0.15 0.5 3.0 25 OUTLET
C2293 0.015 0.15 0.5 3.0 25 OUTLET
C2294 0.015 0.15 0.5 3.0 25 OUTLET
C2295 0.015 0.15 0.5 3.0 25 OUTLET
C2296 0.015 0.15 0.5 3.0 25 OUTLET
C2297 0.015 0.15 0.5 3.0 25 OUTLET
C2298 0.015 0.15 0.5 3.0 25 OUTLET
C2299 0.015 0.15 0.5 3.0 25 OUTLET
C2300 0.015 0.15 0.5 3.0 25 OUTLET
C2301 0.015 0.15 0.5 3.0 25 OUTLET
C2302 0.015 0.15 0.5 3.0 25 OUTLET
C2303 0.015 0.15 0.5 3.0 25 OUTLET
C2304 0.015 0.15 0.5 3.0 25 OUTLET
C2305 0.015 0.15 0.5 3.0 25 OUTLET
C2306 0.015 0.15 0.5 3.0 25 OUTLET
C2307 0.015 0.15 0.5 3.0 25 OUTLET
C2308 0.015 0.15 0.5 3.0 25 OUTLET
C2309 0.015 0.15 0.5 3.0 25 OUTLET
C2310 0.015 0.15 0.5 3.0 25 OUTLET
C2311 0.015 0.15 0.5 3.0 25 OUTLET
C2312 0.015 0.15 0.5 3.0 25 OUTLET
C2313 0.015 0.15 0.5 3.0 25 OUTLET
C2314 0.015 0.15 0.5 3.0 25 OUTLET
C2315 0.015 0.15 0.5 3.0 25 OUTLET
C2316 0.015 0.15 0.5 3.0 25 OUTLET
C2317 0.015 0.15 0.5 3.0 25 OUTLET
C2318 0.015 0.15 0.5 3.0 25 OUTLET
C2319 0.015 0.15 0.5 3.0 25 OUTLET
C2320 0.015 0.15 0.5 3.0 25 OUTLET
C2321 0.015 0.15 0.5 3.0 25 OUTLET
C2322 0.015 0.15 0.5 3.0 25 OUTLET
C2323 0.015 0.15 0.5 3.0 25 OUTLET

[INFILTRATION]
;;Sub MaxRate MinRate Decay DryTime MaxInfil
C0 25 5 4 7 0
C1 25 5 4 7 0
C2 25 5 4 7 0
C3 25 5 4 7 0
C4 25 5 4 7 0
C5 25 5 4 7 0
C6 25 5 4 7 0
C7 25 5 4 7 0
C8 25 5 4 7 0
C9 25 5 4 7 0
C10 25 5 4 7 0
C11 25 5 4 7 0
C12 25 5 4 7 0
C13 25 5 4 7 0
C14 25 5 4 7 0
C15 25 5 4 7 0
C16 25 5 4 7 0
C17 25 5 4 7 0
C18 25 5 4 7 0
C19 25 5 4 7 0
C20 25 5 4 7 0
C21 25 5 4 7 0
C22 25 5 4 7 0
C23 25 5 4 7 0
C24 25 5 4 7 0
C25 25 5 4 7 0
C26 25 5 4 7 0
C27 25 5 4 7 0
C28 25 5 4 7 0
C29 25 5 4 7 0
C30 25 5 4 7 0
C31 25 5 4 7 0
C32 25 5 4 7 0
C33 25 5 4 7 0
C34 25 5 4 7 0
C35 25 5 4 7 0
C36 25 5 4 7 0
C37 25 5 4 7 0
C38 25 5 4 7 0
C39 25 5 4 7 0
C40 25 5 4 7 0
C41 25 5 4 7 0
C42 25 5 4 7 0
C43 25 5 4 7 0
C44 25 5 4 7 0
C45 25 5 4 7 0
C46 25 5 4 7 0
C47 25 5 4 7 0
C48 25 5 4 7 0
C49 25 5 4 7 0
C50 25 5 4 7 0
C51 25 5 4 7 0
C52 25 5 4 7 0
C53 25 5 4 7 0
C54 25 5 4 7 0
C55 25 5 4 7 0
C56 25 5 4 7 0
C57 25 5 4 7 0
C58 25 5 4 7 0
C59 25 5 4 7 0
C60 25 5 4 7 0
C61 25 5 4 7 0
C62 25 5 4 7 0
C63 25 5 4 7 0
C64 25 5 4 7 0
C65 25 5 4 7 0
C66 25 5 4 7 0
C67 25 5 4 7 0
C68 25 5 4 7 0
C69 25 5 4 7 0
C70 25 5 4 7 0
C71 25 5 4 7 0
C72 25 5 4 7 0
C73 25 5 4 7 0
C74 25 5 4 7 0
C75 25 5 4 7 0
C76 25 5 4 7 0
C77 25 5 4 7 0
C78 25 5 4 7 0
C79 25 5 4 7 0
C80 25 5 4 7 0
C81 25 5 4 7 0
C82 25 5 4 7 0
C83 25 5 4 7 0
C84 25 5 4 7 0
C85 25 5 4 7 0
C86 25 5 4 7 0
C87 25 5 4 7 0
C88 25 5 4 7 0
C89 25 5 4 7 0
C90 25 5 4 7 0
C91 25 5 4 7 0
C92 25 5 4 7 0
C93 25 5 4 7 0
C94 25 5 4 7 0
C95 25 5 4 7 0
C96 25 5 4 7 0
C97 25 5 4 7 0
C98 25 5 4 7 0
C99 25 5 4 7 0
C100 25 5 4 7 0
C101 25 5 4 7 0
C102 25 5 4 7 0
C103 25 5 4 7 0
C104 25 5 4 7 0
C105 25 5 4 7 0
C106 25 5 4 7 0
C107 25 5 4 7 0
C108 25 5 4 7 0
C109 25 5 4 7 0
C110 25 5 4 7 0
C111 25 5 4 7 0
C112 25 5 4 7 0
C113 25 5 4 7 0
C114 25 5 4 7 0
C115 25 5 4 7 0
C116 25 5 4 7 0
C117 25 5 4 7 0
C118 25 5 4 7 0
C119 25 5 4 7 0
C120 25 5 4 7 0
C121 25 5 4 7 0
C122 25 5 4 7 0
C123 25 5 4 7 0
C124 25 5 4 7 0
C125 25 5 4 7 0
C126 25 5 4 7 0
C127 25 5 4 7 0
C128 25 5 4 7 0
C129 25 5 4 7 0
C130 25 5 4 7 0
C131 25 5 4 7 0
C132 25 5 4 7 0
C133 25 5 4 7 0
C134 25 5 4 7 0
C135 25 5 4 7 0
C136 25 5 4 7 0
C137 25 5 4 7 0
C138 25 5 4 7 0
C139 25 5 4 7 0
C140 25 5 4 7 0
C141 25 5 4 7 0
C142 25 5 4 7 0
C143 25 5 4 7 0
C144 25 5 4 7 0
C145 25 5 4 7 0
C146 25 5 4 7 0
C147 25 5 4 7 0
C148 25 5 4 7 0
C149 25 5 4 7 0
C150 25 5 4 7 0
C151 25 5 4 7 0
C152 25 5 4 7 0
C153 25 5 4 7 0
C154 25 5 4 7 0
C155 25 5 4 7 0
C156 25 5 4 7 0
C157 25 5 4 7 0
C158 25 5 4 7 0
C159 25 5 4 7 0
C160 25 5 4 7 0
C161 25 5 4 7 0
C162 25 5 4 7 0
C163 25 5 4 7 0
C164 25 5 4 7 0
C165 25 5 4 7 0
C166 25 5 4 7 0
C167 25 5 4 7 0
C168 25 5 4 7 0
C169 25 5 4 7 0
C170 25 5 4 7 0
C171 25 5 4 7 0
C172 25 5 4 7 0
C173 25 5 4 7 0
C174 25 5 4 7 0
C175 25 5 4 7 0
C176 25 5 4 7 0
C177 25 5 4 7 0
C178 25 5 4 7 0
C179 25 5 4 7 0
C180 25 5 4 7 0
C181 25 5 4 7 0
C182 25 5 4 7 0
C183 25 5 4 7 0
C184 25 5 4 7 0
C185 25 5 4 7 0
C186 25 5 4 7 0
C187 25 5 4 7 0
C188 25 5 4 7 0
C189 25 5 4 7 0
C190 25 5 4 7 0
C191 25 5 4 7 0
C192 25 5 4 7 0
C193 25 5 4 7 0
C194 25 5 4 7 0
C195 25 5 4 7 0
C196 25 5 4 7 0
C197 25 5 4 7 0
C198 25 5 4 7 0
C199 25 5 4 7 0
C200 25 5 4 7 0
C201 25 5 4 7 0
C202 25 5 4 7 0
C203 25 5 4 7 0
C204 25 5 4 7 0
C205 25 5 4 7 0
C206 25 5 4 7 0
C207 25 5 4 7 0
C208 25 5 4 7 0
C209 25 5 4 7 0
C210 25 5 4 7 0
C211 25 5 4 7 0
C212 25 5 4 7 0
C213 25 5 4 7 0
C214 25 5 4 7 0
C215 25 5 4 7 0
C216 25 5 4 7 0
C217 25 5 4 7 0
C218 25 5 4 7 0
C219 25 5 4 7 0
C220 25 5 4 7 0
C221 25 5 4 7 0
C222 25 5 4 7 0
C223 25 5 4 7 0
C224 25 5 4 7 0
C225 25 5 4 7 0
C226 25 5 4 7 0
C227 25 5 4 7 0
C228 25 5 4 7 0
C229 25 5 4 7 0
C230 25 5 4 7 0
C231 25 5 4 7 0
C232 25 5 4 7 0
C233 25 5 4 7 0
C234 25 5 4 7 0
C235 25 5 4 7 0
C236 25 5 4 7 0
C237 25 5 4 7 0
C238 25 5 4 7 0
C239 25 5 4 7 0
C240 25 5 4 7 0
C241 25 5 4 7 0
C242 25 5 4 7 0
C243 25 5 4 7 0
C244 25 5 4 7 0
C245 25 5 4 7 0
C246 25 5 4 7 0
C247 25 5 4 7 0
C248 25 5 4 7 0
C249 25 5 4 7 0
C250 25 5 4 7 0
C251 25 5 4 7 0
C252 25 5 4 7 0
C253 25 5 4 7 0
C254 25 5 4 7 0
C255 25 5 4 7 0
C256 25 5 4 7 0
C257 25 5 4 7 0
C258 25 5 4 7 0
C259 25 5 4 7 0
C260 25 5 4 7 0
C261 25 5 4 7 0
C262 25 5 4 7 0
C263 25 5 4 7 0
C264 25 5 4 7 0
C265 25 5 4 7 0
C266 25 5 4 7 0
C267 25 5 4 7 0
C268 25 5 4 7 0
C269 25 5 4 7 0
C270 25 5 4 7 0
C271 25 5 4 7 0
C272 25 5 4 7 0
C273 25 5 4 7 0
C274 25 5 4 7 0
C275 25 5 4 7 0
C276 25 5 4 7 0
C277 25 5 4 7 0
C278 25 5 4 7 0
C279 25 5 4 7 0
C280 25 5 4 7 0
C281 25 5 4 7 0
C282 25 5 4 7 0
C283 25 5 4 7 0
C284 25 5 4 7 0
C285 25 5 4 7 0
C286 25 5 4 7 0
C287 25 5 4 7 0
C288 25 5 4 7 0
C289 25 5 4 7 0
C290 25 5 4 7 0
C291 25 5 4 7 0
C292 25 5 4 7 0
C293 25 5 4 7 0
C294 25 5 4 7 0
C295 25 5 4 7 0
C296 25 5 4 7 0
C297 25 5 4 7 0
C298 25 5 4 7 0
C299 25 5 4 7 0
C300 25 5 4 7 0
C301 25 5 4 7 0
C302 25 5 4 7 0
C303 25 5 4 7 0
C304 25 5 4 7 0
C305 25 5 4 7 0
C306 25 5 4 7 0
C307 25 5 4 7 0
C308 25 5 4 7 0
C309 25 5 4 7 0
C310 25 5 4 7 0
C311 25 5 4 7 0
C312 25 5 4 7 0
C313 25 5 4 7 0
C314 25 5 4 7 0
C315 25 5 4 7 0
C316 25 5 4 7 0
C317 25 5 4 7 0
C318 25 5 4 7 0
C319 25 5 4 7 0
C320 25 5 4 7 0
C321 25 5 4 7 0
C322 25 5 4 7 0
C323 25 5 4 7 0
C324 25 5 4 7 0
C325 25 5 4 7 0
C326 25 5 4 7 0
C327 25 5 4 7 0
C328 25 5 4 7 0
C329 25 5 4 7 0
C330 25 5 4 7 0
C331 25 5 4 7 0
C332 25 5 4 7 0
C333 25 5 4 7 0
C334 25 5 4 7 0
C335 25 5 4 7 0
C336 25 5 4 7 0
C337 25 5 4 7 0
C338 25 5 4 7 0
C339 25 5 4 7 0
C340 25 5 4 7 0
C341 25 5 4 7 0
C342 25 5 4 7 0
C343 25 5 4 7 0
C344 25 5 4 7 0
C345 25 5 4 7 0
C346 25 5 4 7 0
C347 25 5 4 7 0
C348 25 5 4 7 0
C349 25 5 4 7 0
C350 25 5 4 7 0
C351 25 5 4 7 0
C352 25 5 4 7 0
C353 25 5 4 7 0
C354 25 5 4 7 0
C355 25 5 4 7 0
C356 25 5 4 7 0
C357 25 5 4 7 0
C358 25 5 4 7 0
C359 25 5 4 7 0
C360 25 5 4 7 0
C361 25 5 4 7 0
C362 25 5 4 7 0
C363 25 5 4 7 0
C364 25 5 4 7 0
C365 25 5 4 7 0
C366 25 5 4 7 0
C367 25 5 4 7 0
C368 25 5 4 7 0
C369 25 5 4 7 0
C370 25 5 4 7 0
C371 25 5 4 7 0
C372 25 5 4 7 0
C373 25 5 4 7 0
C374 25 5 4 7 0
C375 25 5 4 7 0
C376 25 5 4 7 0
C377 25 5 4 7 0
C378 25 5 4 7 0
C379 25 5 4 7 0
C380 25 5 4 7 0
C381 25 5 4 7 0
C382 25 5 4 7 0
C383 25 5 4 7 0
C384 25 5 4 7 0
C385 25 5 4 7 0
C386 25 5 4 7 0
C387 25 5 4 7 0
C388 25 5 4 7 0
C389 25 5 4 7 0
C390 25 5 4 7 0
C391 25 5 4 7 0
C392 25 5 4 7 0
C393 25 5 4 7 0
C394 25 5 4 7 0
C395 25 5 4 7 0
C396 25 5 4 7 0
C397 25 5 4 7 0
C398 25 5 4 7 0
C399 25 5 4 7 0
C400 25 5 4 7 0
C401 25 5 4 7 0
C402 25 5 4 7 0
C403 25 5 4 7 0
C404 25 5 4 7 0
C405 25 5 4 7 0
C406 25 5 4 7 0
C407 25 5 4 7 0
C408 25 5 4 7 0
C409 25 5 4 7 0
C410 25 5 4 7 0
C411 25 5 4 7 0
C412 25 5 4 7 0
C413 25 5 4 7 0
C414 25 5 4 7 0
C415 25 5 4 7 0
C416 25 5 4 7 0
C417 25 5 4 7 0
C418 25 5 4 7 0
C419 25 5 4 7 0
C420 25 5 4 7 0
C421 25 5 4 7 0
C422 25 5 4 7 0
C423 25 5 4 7 0
C424 25 5 4 7 0
C425 25 5 4 7 0
C426 25 5 4 7 0
C427 25 5 4 7 0
C428 25 5 4 7 0
C429 25 5 4 7 0
C430 25 5 4 7 0
C431 25 5 4 7 0
C432 25 5 4 7 0
C433 25 5 4 7 0
C434 25 5 4 7 0
C435 25 5 4 7 0
C436 25 5 4 7 0
C437 25 5 4 7 0
C438 25 5 4 7 0
C439 25 5 4 7 0
C440 25 5 4 7 0
C441 25 5 4 7 0
C442 25 5 4 7 0
C443 25 5 4 7 0
C444 25 5 4 7 0
C445 25 5 4 7 0
C446 25 5 4 7 0
C447 25 5 4 7 0
C448 25 5 4 7 0
C449 25 5 4 7 0
C450 25 5 4 7 0
C451 25 5 4 7 0
C452 25 5 4 7 0
C453 25 5 4 7 0
C454 25 5 4 7 0
C455 25 5 4 7 0
C456 25 5 4 7 0
C457 25 5 4 7 0
C458 25 5 4 7 0
C459 25 5 4 7 0
C460 25 5 4 7 0
C461 25 5 4 7 0
C462 25 5 4 7 0
C463 25 5 4 7 0
C464 25 5 4 7 0
C465 25 5 4 7 0
C466 25 5 4 7 0
C467 25 5 4 7 0
C468 25 5 4 7 0
C469 25 5 4 7 0
C470 25 5 4 7 0
C471 25 5 4 7 0
C472 25 5 4 7 0
C473 25 5 4 7 0
C474 25 5 4 7 0
C475 25 5 4 7 0
C476 25 5 4 7 0
C477 25 5 4 7 0
C478 25 5 4 7 0
C479 25 5 4 7 0
C480 25 5 4 7 0
C481 25 5 4 7 0
C482 25 5 4 7 0
C483 25 5 4 7 0
C484 25 5 4 7 0
C485 25 5 4 7 0
C486 25 5 4 7 0
C487 25 5 4 7 0
C488 25 5 4 7 0
C489 25 5 4 7 0
C490 25 5 4 7 0
C491 25 5 4 7 0
C492 25 5 4 7 0
C493 25 5 4 7 0
C494 25 5 4 7 0
C495 25 5 4 7 0
C496 25 5 4 7 0
C497 25 5 4 7 0
C498 25 5 4 7 0
C499 25 5 4 7 0
C500 25 5 4 7 0
C501 25 5 4 7 0
C502 25 5 4 7 0
C503 25 5 4 7 0
C504 25 5 4 7 0
C505 25 5 4 7 0
C506 25 5 4 7 0
C507 25 5 4 7 0
C508 25 5 4 7 0
C509 25 5 4 7 0
C510 25 5 4 7 0
C511 25 5 4 7 0
C512 25 5 4 7 0
C513 25 5 4 7 0
C514 25 5 4 7 0
C515 25 5 4 7 0
C516 25 5 4 7 0
C517 25 5 4 7 0
C518 25 5 4 7 0
C519 25 5 4 7 0
C520 25 5 4 7 0
C521 25 5 4 7 0
C522 25 5 4 7 0
C523 25 5 4 7 0
C524 25 5 4 7 0
C525 25 5 4 7 0
C526 25 5 4 7 0
C527 25 5 4 7 0
C528 25 5 4 7 0
C529 25 5 4 7 0
C530 25 5 4 7 0
C531 25 5 4 7 0
C532 25 5 4 7 0
C533 25 5 4 7 0
C534 25 5 4 7 0
C535 25 5 4 7 0
C536 25 5 4 7 0
C537 25 5 4 7 0
C538 25 5 4 7 0
C539 25 5 4 7 0
C540 25 5 4 7 0
C541 25 5 4 7 0
C542 25 5 4 7 0
C543 25 5 4 7 0
C544 25 5 4 7 0
C545 25 5 4 7 0
C546 25 5 4 7 0
C547 25 5 4 7 0
C548 25 5 4 7 0
C549 25 5 4 7 0
C550 25 5 4 7 0
C551 25 5 4 7 0
C552 25 5 4 7 0
C553 25 5 4 7 0
C554 25 5 4 7 0
C555 25 5 4 7 0
C556 25 5 4 7 0
C557 25 5 4 7 0
C558 25 5 4 7 0
C559 25 5 4 7 0
C560 25 5 4 7 0
C561 25 5 4 7 0
C562 25 5 4 7 0
C563 25 5 4 7 0
C564 25 5 4 7 0
C565 25 5 4 7 0
C566 25 5 4 7 0
C567 25 5 4 7 0
C568 25 5 4 7 0
C569 25 5 4 7 0
C570 25 5 4 7 0
C571 25 5 4 7 0
C572 25 5 4 7 0
C573 25 5 4 7 0
C574 25 5 4 7 0
C575 25 5 4 7 0
C576 25 5 4 7 0
C577 25 5 4 7 0
C578 25 5 4 7 0
C579 25 5 4 7 0
C580 25 5 4 7 0
C581 25 5 4 7 0
C582 25 5 4 7 0
C583 25 5 4 7 0
C584 25 5 4 7 0
C585 25 5 4 7 0
C586 25 5 4 7 0
C587 25 5 4 7 0
C588 25 5 4 7 0
C589 25 5 4 7 0
C590 25 5 4 7 0
C591 25 5 4 7 0
C592 25 5 4 7 0
C593 25 5 4 7 0
C594 25 5 4 7 0
C595 25 5 4 7 0
C596 25 5 4 7 0
C597 25 5 4 7 0
C598 25 5 4 7 0
C599 25 5 4 7 0
C600 25 5 4 7 0
C601 25 5 4 7 0
C602 25 5 4 7 0
C603 25 5 4 7 0
C604 25 5 4 7 0
C605 25 5 4 7 0
C606 25 5 4 7 0
C607 25 5 4 7 0
C608 25 5 4 7 0
C609 25 5 4 7 0
C610 25 5 4 7 0
C611 25 5 4 7 0
C612 25 5 4 7 0
C613 25 5 4 7 0
C614 25 5 4 7 0
C615 25 5 4 7 0
C616 25 5 4 7 0
C617 25 5 4 7 0
C618 25 5 4 7 0
C619 25 5 4 7 0
C620 25 5 4 7 0
C621 25 5 4 7 0
C622 25 5 4 7 0
C623 25 5 4 7 0
C624 25 5 4 7 0
C625 25 5 4 7 0
C626 25 5 4 7 0
C627 25 5 4 7 0
C628 25 5 4 7 0
C629 25 5 4 7 0
C630 25 5 4 7 0
C631 25 5 4 7 0
C632 25 5 4 7 0
C633 25 5 4 7 0
C634 25 5 4 7 0
C635 25 5 4 7 0
C636 25 5 4 7 0
C637 25 5 4 7 0
C638 25 5 4 7 0
C639 25 5 4 7 0
C640 25 5 4 7 0
C641 25 5 4 7 0
C642 25 5 4 7 0
C643 25 5 4 7 0
C644 25 5 4 7 0
C645 25 5 4 7 0
C646 25 5 4 7 0
C647 25 5 4 7 0
C648 25 5 4 7 0
C649 25 5 4 7 0
C650 25 5 4 7 0
C651 25 5 4 7 0
C652 25 5 4 7 0
C653 25 5 4 7 0
C654 25 5 4 7 0
C655 25 5 4 7 0
C656 25 5 4 7 0
C657 25 5 4 7 0
C658 25 5 4 7 0
C659 25 5 4 7 0
C660 25 5 4 7 0
C661 25 5 4 7 0
C662 25 5 4 7 0
C663 25 5 4 7 0
C664 25 5 4 7 0
C665 25 5 4 7 0
C666 25 5 4 7 0
C667 25 5 4 7 0
C668 25 5 4 7 0
C669 25 5 4 7 0
C670 25 5 4 7 0
C671 25 5 4 7 0
C672 25 5 4 7 0
C673 25 5 4 7 0
C674 25 5 4 7 0
C675 25 5 4 7 0
C676 25 5 4 7 0
C677 25 5 4 7 0
C678 25 5 4 7 0
C679 25 5 4 7 0
C680 25 5 4 7 0
C681 25 5 4 7 0
C682 25 5 4 7 0
C683 25 5 4 7 0
C684 25 5 4 7 0
C685 25 5 4 7 0
C686 25 5 4 7 0
C687 25 5 4 7 0
C688 25 5 4 7 0
C689 25 5 4 7 0
C690 25 5 4 7 0
C691 25 5 4 7 0
C692 25 5 4 7 0
C693 25 5 4 7 0
C694 25 5 4 7 0
C695 25 5 4 7 0
C696 25 5 4 7 0
C697 25 5 4 7 0
C698 25 5 4 7 0
C699 25 5 4 7 0
C700 25 5 4 7 0
C701 25 5 4 7 0
C702 25 5 4 7 0
C703 25 5 4 7 0
C704 25 5 4 7 0
C705 25 5 4 7 0
C706 25 5 4 7 0
C707 25 5 4 7 0
C708 25 5 4 7 0
C709 25 5 4 7 0
C710 25 5 4 7 0
C711 25 5 4 7 0
C712 25 5 4 7 0
C713 25 5 4 7 0
C714 25 5 4 7 0
C715 25 5 4 7 0
C716 25 5 4 7 0
C717 25 5 4 7 0
C718 25 5 4 7 0
C719 25 5 4 7 0
C720 25 5 4 7 0
C721 25 5 4 7 0
C722 25 5 4 7 0
C723 25 5 4 7 0
C724 25 5 4 7 0
C725 25 5 4 7 0
C726 25 5 4 7 0
C727 25 5 4 7 0
C728 25 5 4 7 0
C729 25 5 4 7 0
C730 25 5 4 7 0
C731 25 5 4 7 0
C732 25 5 4 7 0
C733 25 5 4 7 0
C734 25 5 4 7 0
C735 25 5 4 7 0
C736 25 5 4 7 0
C737 25 5 4 7 0
C738 25 5 4 7 0
C739 25 5 4 7 0
C740 25 5 4 7 0
C741 25 5 4 7 0
C742 25 5 4 7 0
C743 25 5 4 7 0
C744 25 5 4 7 0
C745 25 5 4 7 0
C746 25 5 4 7 0
C747 25 5 4 7 0
C748 25 5 4 7 0
C749 25 5 4 7 0
C750 25 5 4 7 0
C751 25 5 4 7 0
C752 25 5 4 7 0
C753 25 5 4 7 0
C754 25 5 4 7 0
C755 25 5 4 7 0
C756 25 5 4 7 0
C757 25 5 4 7 0
C758 25 5 4 7 0
C759 25 5 4 7 0
C760 25 5 4 7 0
C761 25 5 4 7 0
C762 25 5 4 7 0
C763 25 5 4 7 0
C764 25 5 4 7 0
C765 25 5 4 7 0
C766 25 5 4 7 0
C767 25 5 4 7 0
C768 25 5 4 7 0
C769 25 5 4 7 0
C770 25 5 4 7 0
C771 25 5 4 7 0
C772 25 5 4 7 0
C773 25 5 4 7 0
C774 25 5 4 7 0
C775 25 5 4 7 0
C776 25 5 4 7 0
C777 25 5 4 7 0
C778 25 5 4 7 0
C779 25 5 4 7 0
C780 25 5 4 7 0
C781 25 5 4 7 0
C782 25 5 4 7 0
C783 25 5 4 7 0
C784 25 5 4 7 0
C785 25 5 4 7 0
C786 25 5 4 7 0
C787 25 5 4 7 0
C788 25 5 4 7 0
C789 25 5 4 7 0
C790 25 5 4 7 0
C791 25 5 4 7 0
C792 25 5 4 7 0
C793 25 5 4 7 0
C794 25 5 4 7 0
C795 25 5 4 7 0
C796 25 5 4 7 0
C797 25 5 4 7 0
C798 25 5 4 7 0
C799 25 5 4 7 0
C800 25 5 4 7 0
C801 25 5 4 7 0
C802 25 5 4 7 0
C803 25 5 4 7 0
C804 25 5 4 7 0
C805 25 5 4 7 0
C806 25 5 4 7 0
C807 25 5 4 7 0
C808 25 5 4 7 0
C809 25 5 4 7 0
C810 25 5 4 7 0
C811 25 5 4 7 0
C812 25 5 4 7 0
C813 25 5 4 7 0
C814 25 5 4 7 0
C815 25 5 4 7 0
C816 25 5 4 7 0
C817 25 5 4 7 0
C818 25 5 4 7 0
C819 25 5 4 7 0
C820 25 5 4 7 0
C821 25 5 4 7 0
C822 25 5 4 7 0
C823 25 5 4 7 0
C824 25 5 4 7 0
C825 25 5 4 7 0
C826 25 5 4 7 0
C827 25 5 4 7 0
C828 25 5 4 7 0
C829 25 5 4 7 0
C830 25 5 4 7 0
C831 25 5 4 7 0
C832 25 5 4 7 0
C833 25 5 4 7 0
C834 25 5 4 7 0
C835 25 5 4 7 0
C836 25 5 4 7 0
C837 25 5 4 7 0
C838 25 5 4 7 0
C839 25 5 4 7 0
C840 25 5 4 7 0
C841 25 5 4 7 0
C842 25 5 4 7 0
C843 25 5 4 7 0
C844 25 5 4 7 0
C845 25 5 4 7 0
C846 25 5 4 7 0
C847 25 5 4 7 0
C848 25 5 4 7 0
C849 25 5 4 7 0
C850 25 5 4 7 0
C851 25 5 4 7 0
C852 25 5 4 7 0
C853 25 5 4 7 0
C854 25 5 4 7 0
C855 25 5 4 7 0
C856 25 5 4 7 0
C857 25 5 4 7 0
C858 25 5 4 7 0
C859 25 5 4 7 0
C860 25 5 4 7 0
C861 25 5 4 7 0
C862 25 5 4 7 0
C863 25 5 4 7 0
C864 25 5 4 7 0
C865 25 5 4 7 0
C866 25 5 4 7 0
C867 25 5 4 7 0
C868 25 5 4 7 0
C869 25 5 4 7 0
C870 25 5 4 7 0
C871 25 5 4 7 0
C872 25 5 4 7 0
C873 25 5 4 7 0
C874 25 5 4 7 0
C875 25 5 4 7 0
C876 25 5 4 7 0
C877 25 5 4 7 0
C878 25 5 4 7 0
C879 25 5 4 7 0
C880 25 5 4 7 0
C881 25 5 4 7 0
C882 25 5 4 7 0
C883 25 5 4 7 0
C884 25 5 4 7 0
C885 25 5 4 7 0
C886 25 5 4 7 0
C887 25 5 4 7 0
C888 25 5 4 7 0
C889 25 5 4 7 0
C890 25 5 4 7 0
C891 25 5 4 7 0
C892 25 5 4 7 0
C893 25 5 4 7 0
C894 25 5 4 7 0
C895 25 5 4 7 0
C896 25 5 4 7 0
C897 25 5 4 7 0
C898 25 5 4 7 0
C899 25 5 4 7 0
C900 25 5 4 7 0
C901 25 5 4 7 0
C902 25 5 4 7 0
C903 25 5 4 7 0
C904 25 5 4 7 0
C905 25 5 4 7 0
C906 25 5 4 7 0
C907 25 5 4 7 0
C908 25 5 4 7 0
C909 25 5 4 7 0
C910 25 5 4 7 0
C911 25 5 4 7 0
C912 25 5 4 7 0
C913 25 5 4 7 0
C914 25 5 4 7 0
C915 25 5 4 7 0
C916 25 5 4 7 0
C917 25 5 4 7 0
C918 25 5 4 7 0
C919 25 5 4 7 0
C920 25 5 4 7 0
C921 25 5 4 7 0
C922 25 5 4 7 0
C923 25 5 4 7 0
C924 25 5 4 7 0
C925 25 5 4 7 0
C926 25 5 4 7 0
C927 25 5 4 7 0
C928 25 5 4 7 0
C929 25 5 4 7 0
C930 25 5 4 7 0
C931 25 5 4 7 0
C932 25 5 4 7 0
C933 25 5 4 7 0
C934 25 5 4 7 0
C935 25 5 4 7 0
C936 25 5 4 7 0
C937 25 5 4 7 0
C938 25 5 4 7 0
C939 25 5 4 7 0
C940 25 5 4 7 0
C941 25 5 4 7 0
C942 25 5 4 7 0
C943 25 5 4 7 0
C944 25 5 4 7 0
C945 25 5 4 7 0
C946 25 5 4 7 0
C947 25 5 4 7 0
C948 25 5 4 7 0
C949 25 5 4 7 0
C950 25 5 4 7 0
C951 25 5 4 7 0
C952 25 5 4 7 0
C953 25 5 4 7 0
C954 25 5 4 7 0
C955 25 5 4 7 0
C956 25 5 4 7 0
C957 25 5 4 7 0
C958 25 5 4 7 0
C959 25 5 4 7 0
C960 25 5 4 7 0
C961 25 5 4 7 0
C962 25 5 4 7 0
C963 25 5 4 7 0
C964 25 5 4 7 0
C965 25 5 4 7 0
C966 25 5 4 7 0
C967 25 5 4 7 0
C968 25 5 4 7 0
C969 25 5 4 7 0
C970 25 5 4 7 0
C971 25 5 4 7 0
C972 25 5 4 7 0
C973 25 5 4 7 0
C974 25 5 4 7 0
C975 25 5 4 7 0
C976 25 5 4 7 0
C977 25 5 4 7 0
C978 25 5 4 7 0
C979 25 5 4 7 0
C980 25 5 4 7 0
C981 25 5 4 7 0
C982 25 5 4 7 0
C983 25 5 4 7 0
C984 25 5 4 7 0
C985 25 5 4 7 0
C986 25 5 4 7 0
C987 25 5 4 7 0
C988 25 5 4 7 0
C989 25 5 4 7 0
C990 25 5 4 7 0
C991 25 5 4 7 0
C992 25 5 4 7 0
C993 25 5 4 7 0
C994 25 5 4 7 0
C995 25 5 4 7 0
C996 25 5 4 7 0
C997 25 5 4 7 0
C998 25 5 4 7 0
C999 25 5 4 7 0
C1000 25 5 4 7 0
C1001 25 5 4 7 0
C1002 25 5 4 7 0
C1003 25 5 4 7 0
C1004 25 5 4 7 0
C1005 25 5 4 7 0
C1006 25 5 4 7 0
C1007 25 5 4 7 0
C1008 25 5 4 7 0
C1009 25 5 4 7 0
C1010 25 5 4 7 0
C1011 25 5 4 7 0
C1012 25 5 4 7 0
C1013 25 5 4 7 0
C1014 25 5 4 7 0
C1015 25 5 4 7 0
C1016 25 5 4 7 0
C1017 25 5 4 7 0
C1018 25 5 4 7 0
C1019 25 5 4 7 0
C1020 25 5 4 7 0
C1021 25 5 4 7 0
C1022 25 5 4 7 0
C1023 25 5 4 7 0
C1024 25 5 4 7 0
C1025 25 5 4 7 0
C1026 25 5 4 7 0
C1027 25 5 4 7 0
C1028 25 5 4 7 0
C1029 25 5 4 7 0
C1030 25 5 4 7 0
C1031 25 5 4 7 0
C1032 25 5 4 7 0
C1033 25 5 4 7 0
C1034 25 5 4 7 0
C1035 25 5 4 7 0
C1036 25 5 4 7 0
C1037 25 5 4 7 0
C1038 25 5 4 7 0
C1039 25 5 4 7 0
C1040 25 5 4 7 0
C1041 25 5 4 7 0
C1042 25 5 4 7 0
C1043 25 5 4 7 0
C1044 25 5 4 7 0
C1045 25 5 4 7 0
C1046 25 5 4 7 0
C1047 25 5 4 7 0
C1048 25 5 4 7 0
C1049 25 5 4 7 0
C1050 25 5 4 7 0
C1051 25 5 4 7 0
C1052 25 5 4 7 0
C1053 25 5 4 7 0
C1054 25 5 4 7 0
C1055 25 5 4 7 0
C1056 25 5 4 7 0
C1057 25 5 4 7 0
C1058 25 5 4 7 0
C1059 25 5 4 7 0
C1060 25 5 4 7 0
C1061 25 5 4 7 0
C1062 25 5 4 7 0
C1063 25 5 4 7 0
C1064 25 5 4 7 0
C1065 25 5 4 7 0
C1066 25 5 4 7 0
C1067 25 5 4 7 0
C1068 25 5 4 7 0
C1069 25 5 4 7 0
C1070 25 5 4 7 0
C1071 25 5 4 7 0
C1072 25 5 4 7 0
C1073 25 5 4 7 0
C1074 25 5 4 7 0
C1075 25 5 4 7 0
C1076 25 5 4 7 0
C1077 25 5 4 7 0
C1078 25 5 4 7 0
C1079 25 5 4 7 0
C1080 25 5 4 7 0
C1081 25 5 4 7 0
C1082 25 5 4 7 0
C1083 25 5 4 7 0
C1084 25 5 4 7 0
C1085 25 5 4 7 0
C1086 25 5 4 7 0
C1087 25 5 4 7 0
C1088 25 5 4 7 0
C1089 25 5 4 7 0
C1090 25 5 4 7 0
C1091 25 5 4 7 0
C1092 25 5 4 7 0
C1093 25 5 4 7 0
C1094 25 5 4 7 0
C1095 25 5 4 7 0
C1096 25 5 4 7 0
C1097 25 5 4 7 0
C1098 25 5 4 7 0
C1099 25 5 4 7 0
C1100 25 5 4 7 0
C1101 25 5 4 7 0
C1102 25 5 4 7 0
C1103 25 5 4 7 0
C1104 25 5 4 7 0
C1105 25 5 4 7 0
C1106 25 5 4 7 0
C1107 25 5 4 7 0
C1108 25 5 4 7 0
C1109 25 5 4 7 0
C1110 25 5 4 7 0
C1111 25 5 4 7 0
C1112 25 5 4 7 0
C1113 25 5 4 7 0
C1114 25 5 4 7 0
C1115 25 5 4 7 0
C1116 25 5 4 7 0
C1117 25 5 4 7 0
C1118 25 5 4 7 0
C1119 25 5 4 7 0
C1120 25 5 4 7 0
C1121 25 5 4 7 0
C1122 25 5 4 7 0
C1123 25 5 4 7 0
C1124 25 5 4 7 0
C1125 25 5 4 7 0
C1126 25 5 4 7 0
C1127 25 5 4 7 0
C1128 25 5 4 7 0
C1129 25 5 4 7 0
C1130 25 5 4 7 0
C1131 25 5 4 7 0
C1132 25 5 4 7 0
C1133 25 5 4 7 0
C1134 25 5 4 7 0
C1135 25 5 4 7 0
C1136 25 5 4 7 0
C1137 25 5 4 7 0
C1138 25 5 4 7 0
C1139 25 5 4 7 0
C1140 25 5 4 7 0
C1141 25 5 4 7 0
C1142 25 5 4 7 0
C1143 25 5 4 7 0
C1144 25 5 4 7 0
C1145 25 5 4 7 0
C1146 25 5 4 7 0
C1147 25 5 4 7 0
C1148 25 5 4 7 0
C1149 25 5 4 7 0
C1150 25 5 4 7 0
C1151 25 5 4 7 0
C1152 25 5 4 7 0
C1153 25 5 4 7 0
C1154 25 5 4 7 0
C1155 25 5 4 7 0
C1156 25 5 4 7 0
C1157 25 5 4 7 0
C1158 25 5 4 7 0
C1159 25 5 4 7 0
C1160 25 5 4 7 0
C1161 25 5 4 7 0
C1162 25 5 4 7 0
C1163 25 5 4 7 0
C1164 25 5 4 7 0
C1165 25 5 4 7 0
C1166 25 5 4 7 0
C1167 25 5 4 7 0
C1168 25 5 4 7 0
C1169 25 5 4 7 0
C1170 25 5 4 7 0
C1171 25 5 4 7 0
C1172 25 5 4 7 0
C1173 25 5 4 7 0
C1174 25 5 4 7 0
C1175 25 5 4 7 0
C1176 25 5 4 7 0
C1177 25 5 4 7 0
C1178 25 5 4 7 0
C1179 25 5 4 7 0
C1180 25 5 4 7 0
C1181 25 5 4 7 0
C1182 25 5 4 7 0
C1183 25 5 4 7 0
C1184 25 5 4 7 0
C1185 25 5 4 7 0
C1186 25 5 4 7 0
C1187 25 5 4 7 0
C1188 25 5 4 7 0
C1189 25 5 4 7 0
C1190 25 5 4 7 0
C1191 25 5 4 7 0
C1192 25 5 4 7 0
C1193 25 5 4 7 0
C1194 25 5 4 7 0
C1195 25 5 4 7 0
C1196 25 5 4 7 0
C1197 25 5 4 7 0
C1198 25 5 4 7 0
C1199 25 5 4 7 0
C1200 25 5 4 7 0
C1201 25 5 4 7 0
C1202 25 5 4 7 0
C1203 25 5 4 7 0
C1204 25 5 4 7 0
C1205 25 5 4 7 0
C1206 25 5 4 7 0
C1207 25 5 4 7 0
C1208 25 5 4 7 0
C1209 25 5 4 7 0
C1210 25 5 4 7 0
C1211 25 5 4 7 0
C1212 25 5 4 7 0
C1213 25 5 4 7 0
C1214 25 5 4 7 0
C1215 25 5 4 7 0
C1216 25 5 4 7 0
C1217 25 5 4 7 0
C1218 25 5 4 7 0
C1219 25 5 4 7 0
C1220 25 5 4 7 0
C1221 25 5 4 7 0
C1222 25 5 4 7 0
C1223 25 5 4 7 0
C1224 25 5 4 7 0
C1225 25 5 4 7 0
C1226 25 5 4 7 0
C1227 25 5 4 7 0
C1228 25 5 4 7 0
C1229 25 5 4 7 0
C1230 25 5 4 7 0
C1231 25 5 4 7 0
C1232 25 5 4 7 0
C1233 25 5 4 7 0
C1234 25 5 4 7 0
C1235 25 5 4 7 0
C1236 25 5 4 7 0
C1237 25 5 4 7 0
C1238 25 5 4 7 0
C1239 25 5 4 7 0
C1240 25 5 4 7 0
C1241 25 5 4 7 0
C1242 25 5 4 7 0
C1243 25 5 4 7 0
C1244 25 5 4 7 0
C1245 25 5 4 7 0
C1246 25 5 4 7 0
C1247 25 5 4 7 0
C1248 25 5 4 7 0
C1249 25 5 4 7 0
C1250 25 5 4 7 0
C1251 25 5 4 7 0
C1252 25 5 4 7 0
C1253 25 5 4 7 0
C1254 25 5 4 7 0
C1255 25 5 4 7 0
C1256 25 5 4 7 0
C1257 25 5 4 7 0
C1258 25 5 4 7 0
C1259 25 5 4 7 0
C1260 25 5 4 7 0
C1261 25 5 4 7 0
C1262 25 5 4 7 0
C1263 25 5 4 7 0
C1264 25 5 4 7 0
C1265 25 5 4 7 0
C1266 25 5 4 7 0
C1267 25 5 4 7 0
C1268 25 5 4 7 0
C1269 25 5 4 7 0
C1270 25 5 4 7 0
C1271 25 5 4 7 0
C1272 25 5 4 7 0
C1273 25 5 4 7 0
C1274 25 5 4 7 0
C1275 25 5 4 7 0
C1276 25 5 4 7 0
C1277 25 5 4 7 0
C1278 25 5 4 7 0
C1279 25 5 4 7 0
C1280 25 5 4 7 0
C1281 25 5 4 7 0
C1282 25 5 4 7 0
C1283 25 5 4 7 0
C1284 25 5 4 7 0
C1285 25 5 4 7 0
C1286 25 5 4 7 0
C1287 25 5 4 7 0
C1288 25 5 4 7 0
C1289 25 5 4 7 0
C1290 25 5 4 7 0
C1291 25 5 4 7 0
C1292 25 5 4 7 0
C1293 25 5 4 7 0
C1294 25 5 4 7 0
C1295 25 5 4 7 0
C1296 25 5 4 7 0
C1297 25 5 4 7 0
C1298 25 5 4 7 0
C1299 25 5 4 7 0
C1300 25 5 4 7 0
C1301 25 5 4 7 0
C1302 25 5 4 7 0
C1303 25 5 4 7 0
C1304 25 5 4 7 0
C1305 25 5 4 7 0
C1306 25 5 4 7 0
C1307 25 5 4 7 0
C1308 25 5 4 7 0
C1309 25 5 4 7 0
C1310 25 5 4 7 0
C1311 25 5 4 7 0
C1312 25 5 4 7 0
C1313 25 5 4 7 0
C1314 25 5 4 7 0
C1315 25 5 4 7 0
C1316 25 5 4 7 0
C1317 25 5 4 7 0
C1318 25 5 4 7 0
C1319 25 5 4 7 0
C1320 25 5 4 7 0
C1321 25 5 4 7 0
C1322 25 5 4 7 0
C1323 25 5 4 7 0
C1324 25 5 4 7 0
C1325 25 5 4 7 0
C1326 25 5 4 7 0
C1327 25 5 4 7 0
C1328 25 5 4 7 0
C1329 25 5 4 7 0
C1330 25 5 4 7 0
C1331 25 5 4 7 0
C1332 25 5 4 7 0
C1333 25 5 4 7 0
C1334 25 5 4 7 0
C1335 25 5 4 7 0
C1336 25 5 4 7 0
C1337 25 5 4 7 0
C1338 25 5 4 7 0
C1339 25 5 4 7 0
C1340 25 5 4 7 0
C1341 25 5 4 7 0
C1342 25 5 4 7 0
C1343 25 5 4 7 0
C1344 25 5 4 7 0
C1345 25 5 4 7 0
C1346 25 5 4 7 0
C1347 25 5 4 7 0
C1348 25 5 4 7 0
C1349 25 5 4 7 0
C1350 25 5 4 7 0
C1351 25 5 4 7 0
C1352 25 5 4 7 0
C1353 25 5 4 7 0
C1354 25 5 4 7 0
C1355 25 5 4 7 0
C1356 25 5 4 7 0
C1357 25 5 4 7 0
C1358 25 5 4 7 0
C1359 25 5 4 7 0
C1360 25 5 4 7 0
C1361 25 5 4 7 0
C1362 25 5 4 7 0
C1363 25 5 4 7 0
C1364 25 5 4 7 0
C1365 25 5 4 7 0
C1366 25 5 4 7 0
C1367 25 5 4 7 0
C1368 25 5 4 7 0
C1369 25 5 4 7 0
C1370 25 5 4 7 0
C1371 25 5 4 7 0
C1372 25 5 4 7 0
C1373 25 5 4 7 0
C1374 25 5 4 7 0
C1375 25 5 4 7 0
C1376 25 5 4 7 0
C1377 25 5 4 7 0
C1378 25 5 4 7 0
C1379 25 5 4 7 0
C1380 25 5 4 7 0
C1381 25 5 4 7 0
C1382 25 5 4 7 0
C1383 25 5 4 7 0
C1384 25 5 4 7 0
C1385 25 5 4 7 0
C1386 25 5 4 7 0
C1387 25 5 4 7 0
C1388 25 5 4 7 0
C1389 25 5 4 7 0
C1390 25 5 4 7 0
C1391 25 5 4 7 0
C1392 25 5 4 7 0
C1393 25 5 4 7 0
C1394 25 5 4 7 0
C1395 25 5 4 7 0
C1396 25 5 4 7 0
C1397 25 5 4 7 0
C1398 25 5 4 7 0
C1399 25 5 4 7 0
C1400 25 5 4 7 0
C1401 25 5 4 7 0
C1402 25 5 4 7 0
C1403 25 5 4 7 0
C1404 25 5 4 7 0
C1405 25 5 4 7 0
C1406 25 5 4 7 0
C1407 25 5 4 7 0
C1408 25 5 4 7 0
C1409 25 5 4 7 0
C1410 25 5 4 7 0
C1411 25 5 4 7 0
C1412 25 5 4 7 0
C1413 25 5 4 7 0
C1414 25 5 4 7 0
C1415 25 5 4 7 0
C1416 25 5 4 7 0
C1417 25 5 4 7 0
C1418 25 5 4 7 0
C1419 25 5 4 7 0
C1420 25 5 4 7 0
C1421 25 5 4 7 0
C1422 25 5 4 7 0
C1423 25 5 4 7 0
C1424 25 5 4 7 0
C1425 25 5 4 7 0
C1426 25 5 4 7 0
C1427 25 5 4 7 0
C1428 25 5 4 7 0
C1429 25 5 4 7 0
C1430 25 5 4 7 0
C1431 25 5 4 7 0
C1432 25 5 4 7 0
C1433 25 5 4 7 0
C1434 25 5 4 7 0
C1435 25 5 4 7 0
C1436 25 5 4 7 0
C1437 25 5 4 7 0
C1438 25 5 4 7 0
C1439 25 5 4 7 0
C1440 25 5 4 7 0
C1441 25 5 4 7 0
C1442 25 5 4 7 0
C1443 25 5 4 7 0
C1444 25 5 4 7 0
C1445 25 5 4 7 0
C1446 25 5 4 7 0
C1447 25 5 4 7 0
C1448 25 5 4 7 0
C1449 25 5 4 7 0
C1450 25 5 4 7 0
C1451 25 5 4 7 0
C1452 25 5 4 7 0
C1453 25 5 4 7 0
C1454 25 5 4 7 0
C1455 25 5 4 7 0
C1456 25 5 4 7 0
C1457 25 5 4 7 0
C1458 25 5 4 7 0
C1459 25 5 4 7 0
C1460 25 5 4 7 0
C1461 25 5 4 7 0
C1462 25 5 4 7 0
C1463 25 5 4 7 0
C1464 25 5 4 7 0
C1465 25 5 4 7 0
C1466 25 5 4 7 0
C1467 25 5 4 7 0
C1468 25 5 4 7 0
C1469 25 5 4 7 0
C1470 25 5 4 7 0
C1471 25 5 4 7 0
C1472 25 5 4 7 0
C1473 25 5 4 7 0
C1474 25 5 4 7 0
C1475 25 5 4 7 0
C1476 25 5 4 7 0
C1477 25 5 4 7 0
C1478 25 5 4 7 0
C1479 25 5 4 7 0
C1480 25 5 4 7 0
C1481 25 5 4 7 0
C1482 25 5 4 7 0
C1483 25 5 4 7 0
C1484 25 5 4 7 0
C1485 25 5 4 7 0
C1486 25 5 4 7 0
C1487 25 5 4 7 0
C1488 25 5 4 7 0
C1489 25 5 4 7 0
C1490 25 5 4 7 0
C1491 25 5 4 7 0
C1492 25 5 4 7 0
C1493 25 5 4 7 0
C1494 25 5 4 7 0
C1495 25 5 4 7 0
C1496 25 5 4 7 0
C1497 25 5 4 7 0
C1498 25 5 4 7 0
C1499 25 5 4 7 0
C1500 25 5 4 7 0
C1501 25 5 4 7 0
C1502 25 5 4 7 0
C1503 25 5 4 7 0
C1504 25 5 4 7 0
C1505 25 5 4 7 0
C1506 25 5 4 7 0
C1507 25 5 4 7 0
C1508 25 5 4 7 0
C1509 25 5 4 7 0
C1510 25 5 4 7 0
C1511 25 5 4 7 0
C1512 25 5 4 7 0
C1513 25 5 4 7 0
C1514 25 5 4 7 0
C1515 25 5 4 7 0
C1516 25 5 4 7 0
C1517 25 5 4 7 0
C1518 25 5 4 7 0
C1519 25 5 4 7 0
C1520 25 5 4 7 0
C1521 25 5 4 7 0
C1522 25 5 4 7 0
C1523 25 5 4 7 0
C1524 25 5 4 7 0
C1525 25 5 4 7 0
C1526 25 5 4 7 0
C1527 25 5 4 7 0
C1528 25 5 4 7 0
C1529 25 5 4 7 0
C1530 25 5 4 7 0
C1531 25 5 4 7 0
C1532 25 5 4 7 0
C1533 25 5 4 7 0
C1534 25 5 4 7 0
C1535 25 5 4 7 0
C1536 25 5 4 7 0
C1537 25 5 4 7 0
C1538 25 5 4 7 0
C1539 25 5 4 7 0
C1540 25 5 4 7 0
C1541 25 5 4 7 0
C1542 25 5 4 7 0
C1543 25 5 4 7 0
C1544 25 5 4 7 0
C1545 25 5 4 7 0
C1546 25 5 4 7 0
C1547 25 5 4 7 0
C1548 25 5 4 7 0
C1549 25 5 4 7 0
C1550 25 5 4 7 0
C1551 25 5 4 7 0
C1552 25 5 4 7 0
C1553 25 5 4 7 0
C1554 25 5 4 7 0
C1555 25 5 4 7 0
C1556 25 5 4 7 0
C1557 25 5 4 7 0
C1558 25 5 4 7 0
C1559 25 5 4 7 0
C1560 25 5 4 7 0
C1561 25 5 4 7 0
C1562 25 5 4 7 0
C1563 25 5 4 7 0
C1564 25 5 4 7 0
C1565 25 5 4 7 0
C1566 25 5 4 7 0
C1567 25 5 4 7 0
C1568 25 5 4 7 0
C1569 25 5 4 7 0
C1570 25 5 4 7 0
C1571 25 5 4 7 0
C1572 25 5 4 7 0
C1573 25 5 4 7 0
C1574 25 5 4 7 0
C1575 25 5 4 7 0
C1576 25 5 4 7 0
C1577 25 5 4 7 0
C1578 25 5 4 7 0
C1579 25 5 4 7 0
C1580 25 5 4 7 0
C1581 25 5 4 7 0
C1582 25 5 4 7 0
C1583 25 5 4 7 0
C1584 25 5 4 7 0
C1585 25 5 4 7 0
C1586 25 5 4 7 0
C1587 25 5 4 7 0
C1588 25 5 4 7 0
C1589 25 5 4 7 0
C1590 25 5 4 7 0
C1591 25 5 4 7 0
C1592 25 5 4 7 0
C1593 25 5 4 7 0
C1594 25 5 4 7 0
C1595 25 5 4 7 0
C1596 25 5 4 7 0
C1597 25 5 4 7 0
C1598 25 5 4 7 0
C1599 25 5 4 7 0
C1600 25 5 4 7 0
C1601 25 5 4 7 0
C1602 25 5 4 7 0
C1603 25 5 4 7 0
C1604 25 5 4 7 0
C1605 25 5 4 7 0
C1606 25 5 4 7 0
C1607 25 5 4 7 0
C1608 25 5 4 7 0
C1609 25 5 4 7 0
C1610 25 5 4 7 0
C1611 25 5 4 7 0
C1612 25 5 4 7 0
C1613 25 5 4 7 0
C1614 25 5 4 7 0
C1615 25 5 4 7 0
C1616 25 5 4 7 0
C1617 25 5 4 7 0
C1618 25 5 4 7 0
C1619 25 5 4 7 0
C1620 25 5 4 7 0
C1621 25 5 4 7 0
C1622 25 5 4 7 0
C1623 25 5 4 7 0
C1624 25 5 4 7 0
C1625 25 5 4 7 0
C1626 25 5 4 7 0
C1627 25 5 4 7 0
C1628 25 5 4 7 0
C1629 25 5 4 7 0
C1630 25 5 4 7 0
C1631 25 5 4 7 0
C1632 25 5 4 7 0
C1633 25 5 4 7 0
C1634 25 5 4 7 0
C1635 25 5 4 7 0
C1636 25 5 4 7 0
C1637 25 5 4 7 0
C1638 25 5 4 7 0
C1639 25 5 4 7 0
C1640 25 5 4 7 0
C1641 25 5 4 7 0
C1642 25 5 4 7 0
C1643 25 5 4 7 0
C1644 25 5 4 7 0
C1645 25 5 4 7 0
C1646 25 5 4 7 0
C1647 25 5 4 7 0
C1648 25 5 4 7 0
C1649 25 5 4 7 0
C1650 25 5 4 7 0
C1651 25 5 4 7 0
C1652 25 5 4 7 0
C1653 25 5 4 7 0
C1654 25 5 4 7 0
C1655 25 5 4 7 0
C1656 25 5 4 7 0
C1657 25 5 4 7 0
C1658 25 5 4 7 0
C1659 25 5 4 7 0
C1660 25 5 4 7 0
C1661 25 5 4 7 0
C1662 25 5 4 7 0
C1663 25 5 4 7 0
C1664 25 5 4 7 0
C1665 25 5 4 7 0
C1666 25 5 4 7 0
C1667 25 5 4 7 0
C1668 25 5 4 7 0
C1669 25 5 4 7 0
C1670 25 5 4 7 0
C1671 25 5 4 7 0
C1672 25 5 4 7 0
C1673 25 5 4 7 0
C1674 25 5 4 7 0
C1675 25 5 4 7 0
C1676 25 5 4 7 0
C1677 25 5 4 7 0
C1678 25 5 4 7 0
C1679 25 5 4 7 0
C1680 25 5 4 7 0
C1681 25 5 4 7 0
C1682 25 5 4 7 0
C1683 25 5 4 7 0
C1684 25 5 4 7 0
C1685 25 5 4 7 0
C1686 25 5 4 7 0
C1687 25 5 4 7 0
C1688 25 5 4 7 0
C1689 25 5 4 7 0
C1690 25 5 4 7 0
C1691 25 5 4 7 0
C1692 25 5 4 7 0
C1693 25 5 4 7 0
C1694 25 5 4 7 0
C1695 25 5 4 7 0
C1696 25 5 4 7 0
C1697 25 5 4 7 0
C1698 25 5 4 7 0
C1699 25 5 4 7 0
C1700 25 5 4 7 0
C1701 25 5 4 7 0
C1702 25 5 4 7 0
C1703 25 5 4 7 0
C1704 25 5 4 7 0
C1705 25 5 4 7 0
C1706 25 5 4 7 0
C1707 25 5 4 7 0
C1708 25 5 4 7 0
C1709 25 5 4 7 0
C1710 25 5 4 7 0
C1711 25 5 4 7 0
C1712 25 5 4 7 0
C1713 25 5 4 7 0
C1714 25 5 4 7 0
C1715 25 5 4 7 0
C1716 25 5 4 7 0
C1717 25 5 4 7 0
C1718 25 5 4 7 0
C1719 25 5 4 7 0
C1720 25 5 4 7 0
C1721 25 5 4 7 0
C1722 25 5 4 7 0
C1723 25 5 4 7 0
C1724 25 5 4 7 0
C1725 25 5 4 7 0
C1726 25 5 4 7 0
C1727 25 5 4 7 0
C1728 25 5 4 7 0
C1729 25 5 4 7 0
C1730 25 5 4 7 0
C1731 25 5 4 7 0
C1732 25 5 4 7 0
C1733 25 5 4 7 0
C1734 25 5 4 7 0
C1735 25 5 4 7 0
C1736 25 5 4 7 0
C1737 25 5 4 7 0
C1738 25 5 4 7 0
C1739 25 5 4 7 0
C1740 25 5 4 7 0
C1741 25 5 4 7 0
C1742 25 5 4 7 0
C1743 25 5 4 7 0
C1744 25 5 4 7 0
C1745 25 5 4 7 0
C1746 25 5 4 7 0
C1747 25 5 4 7 0
C1748 25 5 4 7 0
C1749 25 5 4 7 0
C1750 25 5 4 7 0
C1751 25 5 4 7 0
C1752 25 5 4 7 0
C1753 25 5 4 7 0
C1754 25 5 4 7 0
C1755 25 5 4 7 0
C1756 25 5 4 7 0
C1757 25 5 4 7 0
C1758 25 5 4 7 0
C1759 25 5 4 7 0
C1760 25 5 4 7 0
C1761 25 5 4 7 0
C1762 25 5 4 7 0
C1763 25 5 4 7 0
C1764 25 5 4 7 0
C1765 25 5 4 7 0
C1766 25 5 4 7 0
C1767 25 5 4 7 0
C1768 25 5 4 7 0
C1769 25 5 4 7 0
C1770 25 5 4 7 0
C1771 25 5 4 7 0
C1772 25 5 4 7 0
C1773 25 5 4 7 0
C1774 25 5 4 7 0
C1775 25 5 4 7 0
C1776 25 5 4 7 0
C1777 25 5 4 7 0
C1778 25 5 4 7 0
C1779 25 5 4 7 0
C1780 25 5 4 7 0
C1781 25 5 4 7 0
C1782 25 5 4 7 0
C1783 25 5 4 7 0
C1784 25 5 4 7 0
C1785 25 5 4 7 0
C1786 25 5 4 7 0
C1787 25 5 4 7 0
C1788 25 5 4 7 0
C1789 25 5 4 7 0
C1790 25 5 4 7 0
C1791 25 5 4 7 0
C1792 25 5 4 7 0
C1793 25 5 4 7 0
C1794 25 5 4 7 0
C1795 25 5 4 7 0
C1796 25 5 4 7 0
C1797 25 5 4 7 0
C1798 25 5 4 7 0
C1799 25 5 4 7 0
C1800 25 5 4 7 0
C1801 25 5 4 7 0
C1802 25 5 4 7 0
C1803 25 5 4 7 0
C1804 25 5 4 7 0
C1805 25 5 4 7 0
C1806 25 5 4 7 0
C1807 25 5 4 7 0
C1808 25 5 4 7 0
C1809 25 5 4 7 0
C1810 25 5 4 7 0
C1811 25 5 4 7 0
C1812 25 5 4 7 0
C1813 25 5 4 7 0
C1814 25 5 4 7 0
C1815 25 5 4 7 0
C1816 25 5 4 7 0
C1817 25 5 4 7 0
C1818 25 5 4 7 0
C1819 25 5 4 7 0
C1820 25 5 4 7 0
C1821 25 5 4 7 0
C1822 25 5 4 7 0
C1823 25 5 4 7 0
C1824 25 5 4 7 0
C1825 25 5 4 7 0
C1826 25 5 4 7 0
C1827 25 5 4 7 0
C1828 25 5 4 7 0
C1829 25 5 4 7 0
C1830 25 5 4 7 0
C1831 25 5 4 7 0
C1832 25 5 4 7 0
C1833 25 5 4 7 0
C1834 25 5 4 7 0
C1835 25 5 4 7 0
C1836 25 5 4 7 0
C1837 25 5 4 7 0
C1838 25 5 4 7 0
C1839 25 5 4 7 0
C1840 25 5 4 7 0
C1841 25 5 4 7 0
C1842 25 5 4 7 0
C1843 25 5 4 7 0
C1844 25 5 4 7 0
C1845 25 5 4 7 0
C1846 25 5 4 7 0
C1847 25 5 4 7 0
C1848 25 5 4 7 0
C1849 25 5 4 7 0
C1850 25 5 4 7 0
C1851 25 5 4 7 0
C1852 25 5 4 7 0
C1853 25 5 4 7 0
C1854 25 5 4 7 0
C1855 25 5 4 7 0
C1856 25 5 4 7 0
C1857 25 5 4 7 0
C1858 25 5 4 7 0
C1859 25 5 4 7 0
C1860 25 5 4 7 0
C1861 25 5 4 7 0
C1862 25 5 4 7 0
C1863 25 5 4 7 0
C1864 25 5 4 7 0
C1865 25 5 4 7 0
C1866 25 5 4 7 0
C1867 25 5 4 7 0
C1868 25 5 4 7 0
C1869 25 5 4 7 0
C1870 25 5 4 7 0
C1871 25 5 4 7 0
C1872 25 5 4 7 0
C1873 25 5 4 7 0
C1874 25 5 4 7 0
C1875 25 5 4 7 0
C1876 25 5 4 7 0
C1877 25 5 4 7 0
C1878 25 5 4 7 0
C1879 25 5 4 7 0
C1880 25 5 4 7 0
C1881 25 5 4 7 0
C1882 25 5 4 7 0
C1883 25 5 4 7 0
C1884 25 5 4 7 0
C1885 25 5 4 7 0
C1886 25 5 4 7 0
C1887 25 5 4 7 0
C1888 25 5 4 7 0
C1889 25 5 4 7 0
C1890 25 5 4 7 0
C1891 25 5 4 7 0
C1892 25 5 4 7 0
C1893 25 5 4 7 0
C1894 25 5 4 7 0
C1895 25 5 4 7 0
C1896 25 5 4 7 0
C1897 25 5 4 7 0
C1898 25 5 4 7 0
C1899 25 5 4 7 0
C1900 25 5 4 7 0
C1901 25 5 4 7 0
C1902 25 5 4 7 0
C1903 25 5 4 7 0
C1904 25 5 4 7 0
C1905 25 5 4 7 0
C1906 25 5 4 7 0
C1907 25 5 4 7 0
C1908 25 5 4 7 0
C1909 25 5 4 7 0
C1910 25 5 4 7 0
C1911 25 5 4 7 0
C1912 25 5 4 7 0
C1913 25 5 4 7 0
C1914 25 5 4 7 0
C1915 25 5 4 7 0
C1916 25 5 4 7 0
C1917 25 5 4 7 0
C1918 25 5 4 7 0
C1919 25 5 4 7 0
C1920 25 5 4 7 0
C1921 25 5 4 7 0
C1922 25 5 4 7 0
C1923 25 5 4 7 0
C1924 25 5 4 7 0
C1925 25 5 4 7 0
C1926 25 5 4 7 0
C1927 25 5 4 7 0
C1928 25 5 4 7 0
C1929 25 5 4 7 0
C1930 25 5 4 7 0
C1931 25 5 4 7 0
C1932 25 5 4 7 0
C1933 25 5 4 7 0
C1934 25 5 4 7 0
C1935 25 5 4 7 0
C1936 25 5 4 7 0
C1937 25 5 4 7 0
C1938 25 5 4 7 0
C1939 25 5 4 7 0
C1940 25 5 4 7 0
C1941 25 5 4 7 0
C1942 25 5 4 7 0
C1943 25 5 4 7 0
C1944 25 5 4 7 0
C1945 25 5 4 7 0
C1946 25 5 4 7 0
C1947 25 5 4 7 0
C1948 25 5 4 7 0
C1949 25 5 4 7 0
C1950 25 5 4 7 0
C1951 25 5 4 7 0
C1952 25 5 4 7 0
C1953 25 5 4 7 0
C1954 25 5 4 7 0
C1955 25 5 4 7 0
C1956 25 5 4 7 0
C1957 25 5 4 7 0
C1958 25 5 4 7 0
C1959 25 5 4 7 0
C1960 25 5 4 7 0
C1961 25 5 4 7 0
C1962 25 5 4 7 0
C1963 25 5 4 7 0
C1964 25 5 4 7 0
C1965 25 5 4 7 0
C1966 25 5 4 7 0
C1967 25 5 4 7 0
C1968 25 5 4 7 0
C1969 25 5 4 7 0
C1970 25 5 4 7 0
C1971 25 5 4 7 0
C1972 25 5 4 7 0
C1973 25 5 4 7 0
C1974 25 5 4 7 0
C1975 25 5 4 7 0
C1976 25 5 4 7 0
C1977 25 5 4 7 0
C1978 25 5 4 7 0
C1979 25 5 4 7 0
C1980 25 5 4 7 0
C1981 25 5 4 7 0
C1982 25 5 4 7 0
C1983 25 5 4 7 0
C1984 25 5 4 7 0
C1985 25 5 4 7 0
C1986 25 5 4 7 0
C1987 25 5 4 7 0
C1988 25 5 4 7 0
C1989 25 5 4 7 0
C1990 25 5 4 7 0
C1991 25 5 4 7 0
C1992 25 5 4 7 0
C1993 25 5 4 7 0
C1994 25 5 4 7 0
C1995 25 5 4 7 0
C1996 25 5 4 7 0
C1997 25 5 4 7 0
C1998 25 5 4 7 0
C1999 25 5 4 7 0
C2000 25 5 4 7 0
C2001 25 5 4 7 0
C2002 25 5 4 7 0
C2003 25 5 4 7 0
C2004 25 5 4 7 0
C2005 25 5 4 7 0
C2006 25 5 4 7 0
C2007 25 5 4 7 0
C2008 25 5 4 7 0
C2009 25 5 4 7 0
C2010 25 5 4 7 0
C2011 25 5 4 7 0
C2012 25 5 4 7 0
C2013 25 5 4 7 0
C2014 25 5 4 7 0
C2015 25 5 4 7 0
C2016 25 5 4 7 0
C2017 25 5 4 7 0
C2018 25 5 4 7 0
C2019 25 5 4 7 0
C2020 25 5 4 7 0
C2021 25 5 4 7 0
C2022 25 5 4 7 0
C2023 25 5 4 7 0
C2024 25 5 4 7 0
C2025 25 5 4 7 0
C2026 25 5 4 7 0
C2027 25 5 4 7 0
C2028 25 5 4 7 0
C2029 25 5 4 7 0
C2030 25 5 4 7 0
C2031 25 5 4 7 0
C2032 25 5 4 7 0
C2033 25 5 4 7 0
C2034 25 5 4 7 0
C2035 25 5 4 7 0
C2036 25 5 4 7 0
C2037 25 5 4 7 0
C2038 25 5 4 7 0
C2039 25 5 4 7 0
C2040 25 5 4 7 0
C2041 25 5 4 7 0
C2042 25 5 4 7 0
C2043 25 5 4 7 0
C2044 25 5 4 7 0
C2045 25 5 4 7 0
C2046 25 5 4 7 0
C2047 25 5 4 7 0
C2048 25 5 4 7 0
C2049 25 5 4 7 0
C2050 25 5 4 7 0
C2051 25 5 4 7 0
C2052 25 5 4 7 0
C2053 25 5 4 7 0
C2054 25 5 4 7 0
C2055 25 5 4 7 0
C2056 25 5 4 7 0
C2057 25 5 4 7 0
C2058 25 5 4 7 0
C2059 25 5 4 7 0
C2060 25 5 4 7 0
C2061 25 5 4 7 0
C2062 25 5 4 7 0
C2063 25 5 4 7 0
C2064 25 5 4 7 0
C2065 25 5 4 7 0
C2066 25 5 4 7 0
C2067 25 5 4 7 0
C2068 25 5 4 7 0
C2069 25 5 4 7 0
C2070 25 5 4 7 0
C2071 25 5 4 7 0
C2072 25 5 4 7 0
C2073 25 5 4 7 0
C2074 25 5 4 7 0
C2075 25 5 4 7 0
C2076 25 5 4 7 0
C2077 25 5 4 7 0
C2078 25 5 4 7 0
C2079 25 5 4 7 0
C2080 25 5 4 7 0
C2081 25 5 4 7 0
C2082 25 5 4 7 0
C2083 25 5 4 7 0
C2084 25 5 4 7 0
C2085 25 5 4 7 0
C2086 25 5 4 7 0
C2087 25 5 4 7 0
C2088 25 5 4 7 0
C2089 25 5 4 7 0
C2090 25 5 4 7 0
C2091 25 5 4 7 0
C2092 25 5 4 7 0
C2093 25 5 4 7 0
C2094 25 5 4 7 0
C2095 25 5 4 7 0
C2096 25 5 4 7 0
C2097 25 5 4 7 0
C2098 25 5 4 7 0
C2099 25 5 4 7 0
C2100 25 5 4 7 0
C2101 25 5 4 7 0
C2102 25 5 4 7 0
C2103 25 5 4 7 0
C2104 25 5 4 7 0
C2105 25 5 4 7 0
C2106 25 5 4 7 0
C2107 25 5 4 7 0
C2108 25 5 4 7 0
C2109 25 5 4 7 0
C2110 25 5 4 7 0
C2111 25 5 4 7 0
C2112 25 5 4 7 0
C2113 25 5 4 7 0
C2114 25 5 4 7 0
C2115 25 5 4 7 0
C2116 25 5 4 7 0
C2117 25 5 4 7 0
C2118 25 5 4 7 0
C2119 25 5 4 7 0
C2120 25 5 4 7 0
C2121 25 5 4 7 0
C2122 25 5 4 7 0
C2123 25 5 4 7 0
C2124 25 5 4 7 0
C2125 25 5 4 7 0
C2126 25 5 4 7 0
C2127 25 5 4 7 0
C2128 25 5 4 7 0
C2129 25 5 4 7 0
C2130 25 5 4 7 0
C2131 25 5 4 7 0
C2132 25 5 4 7 0
C2133 25 5 4 7 0
C2134 25 5 4 7 0
C2135 25 5 4 7 0
C2136 25 5 4 7 0
C2137 25 5 4 7 0
C2138 25 5 4 7 0
C2139 25 5 4 7 0
C2140 25 5 4 7 0
C2141 25 5 4 7 0
C2142 25 5 4 7 0
C2143 25 5 4 7 0
C2144 25 5 4 7 0
C2145 25 5 4 7 0
C2146 25 5 4 7 0
C2147 25 5 4 7 0
C2148 25 5 4 7 0
C2149 25 5 4 7 0
C2150 25 5 4 7 0
C2151 25 5 4 7 0
C2152 25 5 4 7 0
C2153 25 5 4 7 0
C2154 25 5 4 7 0
C2155 25 5 4 7 0
C2156 25 5 4 7 0
C2157 25 5 4 7 0
C2158 25 5 4 7 0
C2159 25 5 4 7 0
C2160 25 5 4 7 0
C2161 25 5 4 7 0
C2162 25 5 4 7 0
C2163 25 5 4 7 0
C2164 25 5 4 7 0
C2165 25 5 4 7 0
C2166 25 5 4 7 0
C2167 25 5 4 7 0
C2168 25 5 4 7 0
C2169 25 5 4 7 0
C2170 25 5 4 7 0
C2171 25 5 4 7 0
C2172 25 5 4 7 0
C2173 25 5 4 7 0
C2174 25 5 4 7 0
C2175 25 5 4 7 0
C2176 25 5 4 7 0
C2177 25 5 4 7 0
C2178 25 5 4 7 0
C2179 25 5 4 7 0
C2180 25 5 4 7 0
C2181 25 5 4 7 0
C2182 25 5 4 7 0
C2183 25 5 4 7 0
C2184 25 5 4 7 0
C2185 25 5 4 7 0
C2186 25 5 4 7 0
C2187 25 5 4 7 0
C2188 25 5 4 7 0
C2189 25 5 4 7 0
C2190 25 5 4 7 0
C2191 25 5 4 7 0
C2192 25 5 4 7 0
C2193 25 5 4 7 0
C2194 25 5 4 7 0
C2195 25 5 4 7 0
C2196 25 5 4 7 0
C2197 25 5 4 7 0
C2198 25 5 4 7 0
C2199 25 5 4 7 0
C2200 25 5 4 7 0
C2201 25 5 4 7 0
C2202 25 5 4 7 0
C2203 25 5 4 7 0
C2204 25 5 4 7 0
C2205 25 5 4 7 0
C2206 25 5 4 7 0
C2207 25 5 4 7 0
C2208 25 5 4 7 0
C2209 25 5 4 7 0
C2210 25 5 4 7 0
C2211 25 5 4 7 0
C2212 25 5 4 7 0
C2213 25 5 4 7 0
C2214 25 5 4 7 0
C2215 25 5 4 7 0
C2216 25 5 4 7 0
C2217 25 5 4 7 0
C2218 25 5 4 7 0
C2219 25 5 4 7 0
C2220 25 5 4 7 0
C2221 25 5 4 7 0
C2222 25 5 4 7 0
C2223 25 5 4 7 0
C2224 25 5 4 7 0
C2225 25 5 4 7 0
C2226 25 5 4 7 0
C2227 25 5 4 7 0
C2228 25 5 4 7 0
C2229 25 5 4 7 0
C2230 25 5 4 7 0
C2231 25 5 4 7 0
C2232 25 5 4 7 0
C2233 25 5 4 7 0
C2234 25 5 4 7 0
C2235 25 5 4 7 0
C2236 25 5 4 7 0
C2237 25 5 4 7 0
C2238 25 5 4 7 0
C2239 25 5 4 7 0
C2240 25 5 4 7 0
C2241 25 5 4 7 0
C2242 25 5 4 7 0
C2243 25 5 4 7 0
C2244 25 5 4 7 0
C2245 25 5 4 7 0
C2246 25 5 4 7 0
C2247 25 5 4 7 0
C2248 25 5 4 7 0
C2249 25 5 4 7 0
C2250 25 5 4 7 0
C2251 25 5 4 7 0
C2252 25 5 4 7 0
C2253 25 5 4 7 0
C2254 25 5 4 7 0
C2255 25 5 4 7 0
C2256 25 5 4 7 0
C2257 25 5 4 7 0
C2258 25 5 4 7 0
C2259 25 5 4 7 0
C2260 25 5 4 7 0
C2261 25 5 4 7 0
C2262 25 5 4 7 0
C2263 25 5 4 7 0
C2264 25 5 4 7 0
C2265 25 5 4 7 0
C2266 25 5 4 7 0
C2267 25 5 4 7 0
C2268 25 5 4 7 0
C2269 25 5 4 7 0
C2270 25 5 4 7 0
C2271 25 5 4 7 0
C2272 25 5 4 7 0
C2273 25 5 4 7 0
C2274 25 5 4 7 0
C2275 25 5 4 7 0
C2276 25 5 4 7 0
C2277 25 5 4 7 0
C2278 25 5 4 7 0
C2279 25 5 4 7 0
C2280 25 5 4 7 0
C2281 25 5 4 7 0
C2282 25 5 4 7 0
C2283 25 5 4 7 0
C2284 25 5 4 7 0
C2285 25 5 4 7 0
C2286 25 5 4 7 0
C2287 25 5 4 7 0
C2288 25 5 4 7 0
C2289 25 5 4 7 0
C2290 25 5 4 7 0
C2291 25 5 4 7 0
C2292 25 5 4 7 0
C2293 25 5 4 7 0
C2294 25 5 4 7 0
C2295 25 5 4 7 0
C2296 25 5 4 7 0
C2297 25 5 4 7 0
C2298 25 5 4 7 0
C2299 25 5 4 7 0
C2300 25 5 4 7 0
C2301 25 5 4 7 0
C2302 25 5 4 7 0
C2303 25 5 4 7 0
C2304 25 5 4 7 0
C2305 25 5 4 7 0
C2306 25 5 4 7 0
C2307 25 5 4 7 0
C2308 25 5 4 7 0
C2309 25 5 4 7 0
C2310 25 5 4 7 0
C2311 25 5 4 7 0
C2312 25 5 4 7 0
C2313 25 5 4 7 0
C2314 25 5 4 7 0
C2315 25 5 4 7 0
C2316 25 5 4 7 0
C2317 25 5 4 7 0
C2318 25 5 4 7 0
C2319 25 5 4 7 0
C2320 25 5 4 7 0
C2321 25 5 4 7 0
C2322 25 5 4 7 0
C2323 25 5 4 7 0

[JUNCTIONS]
;;Name Elev MaxDepth InitDepth SurDepth Aponded
N1545 9.140 2.490 0 0 0
N1778 9.090 2.750 0 0 0
N3267 8.640 0.700 0 0 0
N1979 9.200 1.570 0 0 0
N1221 10.150 1.650 0 0 0
N937 10.350 1.400 0 0 0
N1542 9.250 1.620 0 0 0
N6 9.180 1.700 0 0 0
N2120 10.390 0.690 0 0 0
N599 9.360 1.900 0 0 0
N3250 10.700 0.760 0 0 0
N1880 10.440 1.050 0 0 0
N3935 9.410 1.280 0 0 0
N1666 9.380 1.290 0 0 0
N1918 8.990 1.870 0 0 0
N2570 9.000 1.850 0 0 0
N2821 9.270 1.600 0 0 0
N669 9.310 1.550 0 0 0
N2732 9.250 1.640 0 0 0
N450 6.030 5.080 0 0 0
N905 9.030 2.190 0 0 0
N163 9.000 2.270 0 0 0
N1749 9.100 1.850 0 0 0
N4149 9.220 1.710 0 0 0
N1041 9.410 2.220 0 0 0
N3033 9.910 1.640 0 0 0
N3544 11.490 0.890 0 0 0
N3188 11.050 1.290 0 0 0
N3202 9.180 1.180 0 0 0
N3024 8.900 1.710 0 0 0
N1466 8.780 1.690 0 0 0
N4144 9.590 1.120 0 0 0
N2081 9.190 1.920 0 0 0
N540 9.010 2.430 0 0 0
N3075 8.960 2.030 0 0 0
N3467 9.590 2.000 0 0 0
N151 9.590 1.990 0 0 0
N3941 9.010 1.840 0 0 0
N3789 9.050 1.720 0 0 0
N2255 8.750 2.410 0 0 0
N4172 9.070 2.100 0 0 0
N1047 9.320 1.500 0 0 0
N986 9.110 1.870 0 0 0
N656 9.550 1.450 0 0 0
N1693 9.660 1.350 0 0 0
N3458 9.210 1.480 0 0 0
N1959 9.220 1.760 0 0 0
N1066 8.780 2.290 0 0 0
N1700 8.760 2.270 0 0 0
N1852 9.270 1.430 0 0 0
N3442 9.100 1.490 0 0 0
N3900 9.060 1.630 0 0 0
N3621 9.130 1.630 0 0 0
N3281 8.230 3.020 0 0 0
N1317 8.310 2.580 0 0 0
N188 9.200 1.200 0 0 0
N2866 8.750 1.620 0 0 0
N847 9.940 1.450 0 0 0
N3550 10.030 1.350 0 0 0
N2814 9.300 1.290 0 0 0
N2884 8.270 2.750 0 0 0
N3998 8.200 2.620 0 0 0
N348 7.290 4.870 0 0 0
N1627 8.000 3.810 0 0 0
N1939 8.930 1.490 0 0 0
N3547 8.970 1.460 0 0 0
N2956 9.260 1.690 0 0 0
N2472 6.830 4.380 0 0 0
N3653 5.990 4.470 0 0 0
N1216 5.860 4.790 0 0 0
N2195 9.310 1.920 0 0 0
S1 9.390 1.817 0 0 0
N3168 10.190 1.170 0 0 0
N4038 10.120 1.510 0 0 0
N142 7.000 3.780 0 0 0
N1787 5.560 6.550 0 0 0
N2757 9.640 0.910 0 0 0
N2822 9.640 1.060 0 0 0
N1110 8.820 1.710 0 0 0
N3515 9.000 1.410 0 0 0
N4245 9.360 1.200 0 0 0
N122 9.340 1.250 0 0 0
N923 9.000 1.430 0 0 0
N325 8.980 1.490 0 0 0
N3593 9.140 1.240 0 0 0
N1783 9.160 1.060 0 0 0
N1439 9.960 1.940 0 0 0
N678 9.950 1.950 0 0 0
N3211 8.870 2.550 0 0 0
N3001 8.780 2.620 0 0 0
N4157 9.460 1.170 0 0 0
N370 8.030 2.700 0 0 0
N402 9.190 2.180 0 0 0
N4239 9.050 1.600 0 0 0
N4076 8.360 2.800 0 0 0
N432 9.000 2.040 0 0 0
N1451 9.020 1.770 0 0 0
N4339 8.060 2.750 0 0 0
N1671 9.200 2.350 0 0 0
N3217 9.160 2.920 0 0 0
N2933 8.860 2.420 0 0 0
N1312 8.830 2.390 0 0 0
N1173 8.770 3.190 0 0 0
S2 8.920 2.990 0 0 0
N1820 9.470 1.500 0 0 0
N3284 9.440 1.660 0 0 0
N1143 9.300 1.230 0 0 0
N714 9.200 1.500 0 0 0
N2294 10.230 1.190 0 0 0
N4158 10.300 1.200 0 0 0
N112 9.390 1.030 0 0 0
N1911 9.370 1.090 0 0 0
N933 9.350 1.930 0 0 0
N1696 9.310 1.640 0 0 0
N2828 10.200 1.570 0 0 0
N2148 9.470 2.470 0 0 0
N2638 8.630 2.140 0 0 0
N3648 8.590 2.270 0 0 0
N3487 8.990 1.670 0 0 0
N4356 8.980 2.990 0 0 0
N380 9.170 1.450 0 0 0
N2938 6.910 3.670 0 0 0
N3496 8.590 2.660 0 0 0
N4137 8.590 2.780 0 0 0
S3 9.730 0.913 0 0 0
N1268 9.590 1.940 0 0 0
N2292 10.210 1.580 0 0 0
N3017 8.500 3.400 0 0 0
N883 9.340 2.000 0 0 0
N334 9.660 1.720 0 0 0
N774 8.540 2.260 0 0 0
N715 9.080 1.470 0 0 0
N467 8.160 2.390 0 0 0
N3379 9.200 1.410 0 0 0
N3241 9.200 1.400 0 0 0
N182 8.940 1.640 0 0 0
N1826 9.050 1.430 0 0 0
N4221 9.300 1.230 0 0 0
N4364 9.280 1.230 0 0 0
N4215 8.630 1.700 0 0 0
N4016 8.640 1.710 0 0 0
N1427 9.200 1.640 0 0 0
N2647 9.370 1.710 0 0 0
N1282 10.030 1.520 0 0 0
N92 10.170 1.640 0 0 0
N3109 8.780 2.020 0 0 0
N1324 8.720 3.140 0 0 0
N2530 10.050 1.710 0 0 0
N2133 8.420 2.820 0 0 0
N4255 8.540 3.270 0 0 0
N2131 8.960 1.640 0 0 0
N1519 8.780 1.740 0 0 0
N1725 9.050 2.410 0 0 0
N764 9.270 2.230 0 0 0
N400 8.990 2.030 0 0 0
N201 9.210 1.670 0 0 0
N642 8.950 1.630 0 0 0
N4217 8.930 1.660 0 0 0
N1091 6.660 4.400 0 0 0
N3430 9.450 2.080 0 0 0
N3597 8.960 2.100 0 0 0
N1368 9.000 2.810 0 0 0
N1861 8.350 2.890 0 0 0
N379 8.840 2.330 0 0 0
N884 8.850 2.960 0 0 0
N972 8.890 1.720 0 0 0
N4367 9.100 1.060 0 0 0
N2598 8.850 1.490 0 0 0
N3669 9.000 1.730 0 0 0
N2307 9.500 1.600 0 0 0
N2614 9.470 1.310 0 0 0
N3590 8.700 1.800 0 0 0
N954 9.380 1.200 0 0 0
N1463 8.940 2.220 0 0 0
N931 8.400 3.220 0 0 0
N2393 10.120 1.140 0 0 0
N991 10.130 1.240 0 0 0
N770 9.040 1.540 0 0 0
N3409 9.070 1.380 0 0 0
N1108 6.960 5.090 0 0 0
N2959 6.860 4.640 0 0 0
N1597 9.210 1.330 0 0 0
N2257 9.340 1.240 0 0 0
N1768 9.630 1.190 0 0 0
N1431 9.120 2.100 0 0 0
N2403 8.880 1.910 0 0 0
N2585 8.900 1.880 0 0 0
N2776 9.200 1.500 0 0 0
N3856 9.360 1.490 0 0 0
N1702 9.070 1.720 0 0 0
N301 9.530 1.350 0 0 0
N3240 8.820 1.790 0 0 0
N3921 8.840 1.790 0 0 0
N4251 9.210 2.030 0 0 0
N20 8.230 3.740 0 0 0
N1802 9.740 1.730 0 0 0
N3260 9.790 1.160 0 0 0
N2835 9.000 2.170 0 0 0
N3576 9.060 2.110 0 0 0
N2708 6.580 5.560 0 0 0
N2541 9.160 1.280 0 0 0
N1126 9.080 1.340 0 0 0
N282 9.200 1.660 0 0 0
N1195 10.780 1.380 0 0 0
N759 10.900 1.320 0 0 0
N3936 9.340 1.210 0 0 0
N968 7.440 3.250 0 0 0
N3453 8.950 1.680 0 0 0
N1222 8.950 1.580 0 0 0
N3505 8.460 2.790 0 0 0
N2099 8.540 2.720 0 0 0
N2617 8.670 2.380 0 0 0
N2669 8.710 2.580 0 0 0
N4112 7.700 3.400 0 0 0
N3180 7.720 3.320 0 0 0
N2629 9.150 1.790 0 0 0
N2397 9.250 1.600 0 0 0
N2138 9.220 1.220 0 0 0
N1353 9.290 2.100 0 0 0
N2314 8.470 2.550 0 0 0
N576 8.550 2.400 0 0 0
N2411 10.070 1.310 0 0 0
N609 8.070 3.360 0 0 0
N4004 8.880 2.010 0 0 0
N2171 8.930 1.960 0 0 0
N2214 8.800 2.260 0 0 0
S4 8.950 2.097 0 0 0
N4332 9.890 1.260 0 0 0
N3905 9.910 1.210 0 0 0
N2817 9.180 1.460 0 0 0
N3898 8.210 2.250 0 0 0
N2002 7.850 3.890 0 0 0
N2709 10.410 1.430 0 0 0
N566 9.420 1.680 0 0 0
N924 9.420 1.910 0 0 0
N3700 9.980 1.570 0 0 0
N2628 9.760 1.460 0 0 0
N3185 6.500 4.710 0 0 0
N397 6.610 3.900 0 0 0
N3637 5.520 6.650 0 0 0
N511 9.410 2.830 0 0 0
N2460 9.370 1.250 0 0 0
N1878 8.600 0.700 0 0 0
N2262 9.300 1.640 0 0 0
N360 9.200 1.530 0 0 0
N2361 9.300 1.560 0 0 0
N1476 9.270 1.710 0 0 0
N3402 8.700 2.430 0 0 0
N1518 8.670 2.220 0 0 0
N3670 9.080 1.550 0 0 0
N499 8.990 2.250 0 0 0
N3864 9.180 1.830 0 0 0
N2533 9.200 1.630 0 0 0
N4163 9.190 2.440 0 0 0
N3948 9.360 1.390 0 0 0
N2380 7.630 3.490 0 0 0
N3729 10.860 1.490 0 0 0
N795 11.170 1.530 0 0 0
N3457 9.980 1.340 0 0 0
N3414 10.020 1.120 0 0 0
N1662 9.150 1.300 0 0 0
N1096 9.060 1.880 0 0 0
N516 9.200 1.430 0 0 0
N2566 9.200 1.600 0 0 0
N1968 10.230 1.410 0 0 0
N1386 10.210 1.440 0 0 0
N4121 8.830 2.700 0 0 0
N603 8.790 2.100 0 0 0
N2565 9.240 1.150 0 0 0
N3664 9.210 1.050 0 0 0
N653 9.130 1.840 0 0 0
N4084 9.110 1.830 0 0 0
N1833 8.720 2.050 0 0 0
N1549 8.770 2.000 0 0 0
N1387 9.260 1.890 0 0 0
N1912 10.120 1.210 0 0 0
N217 9.970 1.510 0 0 0
N1533 8.920 1.650 0 0 0
N1415 8.940 1.560 0 0 0
N3216 9.480 0.810 0 0 0
N404 9.930 1.160 0 0 0
N506 9.500 1.530 0 0 0
N3695 9.700 1.080 0 0 0
N1114 8.850 2.060 0 0 0
N1883 9.410 1.570 0 0 0
N313 9.740 0.840 0 0 0
N1615 10.900 1.490 0 0 0
N3884 10.470 1.940 0 0 0
N600 10.440 1.050 0 0 0
N630 10.010 1.480 0 0 0
N1521 9.330 1.430 0 0 0
N1867 8.720 2.040 0 0 0
N2483 8.650 2.130 0 0 0
N888 8.680 1.870 0 0 0
N3221 9.490 1.210 0 0 0
N1405 9.900 0.930 0 0 0
N1553 8.260 2.910 0 0 0
N3707 7.950 2.520 0 0 0
S5 9.190 2.069 0 0 0
N3311 9.850 1.810 0 0 0
N2107 9.890 1.830 0 0 0
N2932 11.120 1.260 0 0 0
N2564 11.130 1.150 0 0 0
N2746 8.170 2.580 0 0 0
N1247 8.370 2.590 0 0 0
N3319 9.420 1.740 0 0 0
N1254 9.400 1.790 0 0 0
N1224 9.350 1.920 0 0 0
N1109 9.050 2.140 0 0 0
N1805 9.300 1.150 0 0 0
N79 9.600 1.190 0 0 0
N4305 9.340 1.390 0 0 0
N914 9.400 1.290 0 0 0
N2735 7.610 4.200 0 0 0
N154 7.610 3.970 0 0 0
N157 9.260 1.910 0 0 0
N629 9.140 2.220 0 0 0
N2569 8.720 3.060 0 0 0
N1961 9.250 1.570 0 0 0
N2639 9.290 1.550 0 0 0
N279 8.900 1.570 0 0 0
N3507 9.020 1.490 0 0 0
N1747 9.840 1.690 0 0 0
N1448 7.920 2.810 0 0 0
N14 7.970 2.720 0 0 0
N3068 9.220 1.270 0 0 0
N323 8.870 1.850 0 0 0
N3891 8.710 2.550 0 0 0
N2088 8.580 2.610 0 0 0
N413 8.600 2.410 0 0 0
N3642 8.600 2.700 0 0 0
N2900 8.600 2.900 0 0 0
N1155 8.940 2.470 0 0 0
N3626 8.900 2.220 0 0 0
N3088 9.240 1.540 0 0 0
N23 9.020 1.720 0 0 0
N2928 9.050 1.670 0 0 0
N2857 10.600 1.090 0 0 0
N1233 11.320 1.080 0 0 0
N3257 8.320 3.440 0 0 0
N1271 9.330 3.100 0 0 0
N598 10.370 1.260 0 0 0
N1127 8.900 2.830 0 0 0
S6 9.250 1.313 0 0 0
N1481 9.150 1.540 0 0 0
N641 9.590 1.280 0 0 0
N2440 10.310 1.700 0 0 0
N3025 9.060 2.260 0 0 0
N1161 8.940 1.770 0 0 0
N3760 8.850 1.830 0 0 0
N2721 9.500 2.020 0 0 0
N2940 7.890 2.850 0 0 0
N387 7.940 2.800 0 0 0
N919 10.060 1.470 0 0 0
N2761 9.950 1.470 0 0 0
N3322 10.220 1.270 0 0 0
N1242 10.160 1.370 0 0 0
N2419 8.740 2.490 0 0 0
N1024 8.890 2.430 0 0 0
N284 8.830 2.390 0 0 0
N1724 10.260 1.540 0 0 0
N1331 10.370 1.470 0 0 0
N4274 8.740 1.780 0 0 0
N2356 8.810 1.610 0 0 0
N2763 8.910 2.600 0 0 0
N3913 9.060 2.110 0 0 0
S7 10.310 1.128 0 0 0
N3195 10.220 1.450 0 0 0
N2249 8.850 1.950 0 0 0
N3802 8.870 1.920 0 0 0
N2684 9.830 1.440 0 0 0
N1028 9.940 1.380 0 0 0
N2778 8.720 2.830 0 0 0
N4290 8.800 2.160 0 0 0
N742 9.330 1.390 0 0 0
N2903 9.380 1.450 0 0 0
N3028 9.310 1.200 0 0 0
N195 9.470 1.190 0 0 0
S8 9.560 1.170 0 0 0
N4244 9.460 1.500 0 0 0
N1506 9.000 1.730 0 0 0
N2059 9.000 1.720 0 0 0
N262 9.640 1.400 0 0 0
N441 8.540 0.700 0 0 0
N1512 8.520 0.700 0 0 0
N2065 9.380 1.390 0 0 0
N3273 9.080 1.860 0 0 0
N2022 8.280 2.690 0 0 0
N3148 9.650 1.190 0 0 0
N2748 9.650 1.210 0 0 0
N580 9.320 1.400 0 0 0
N255 9.260 1.570 0 0 0
N3294 9.160 1.310 0 0 0
N2945 9.200 1.320 0 0 0
N3262 9.340 1.030 0 0 0
N4254 9.300 1.180 0 0 0
N1816 9.370 0.870 0 0 0
N4078 9.200 1.510 0 0 0
N1670 9.440 1.540 0 0 0
N2129 10.040 1.150 0 0 0
N2270 9.270 1.480 0 0 0
N746 9.430 1.080 0 0 0
N2961 9.470 1.050 0 0 0
N2017 9.250 2.010 0 0 0
N2500 9.080 2.560 0 0 0
N1776 10.010 1.550 0 0 0
N826 9.851 1.698 0 0 0
N1208 8.420 3.060 0 0 0
N487 8.450 2.910 0 0 0
N2930 10.140 1.800 0 0 0
N1779 10.050 1.910 0 0 0
N3486 8.250 3.660 0 0 0
N3592 10.000 1.200 0 0 0
N4116 9.650 1.700 0 0 0
N52 9.090 2.250 0 0 0
N176 6.330 5.210 0 0 0
N2072 7.780 2.790 0 0 0
N1016 7.740 2.790 0 0 0
N2591 9.080 1.710 0 0 0
N1772 9.430 1.350 0 0 0
N3214 9.080 1.460 0 0 0
N952 9.150 1.320 0 0 0
N2399 8.800 2.030 0 0 0
N2190 8.820 1.990 0 0 0
N989 9.030 1.600 0 0 0
N352 9.050 1.540 0 0 0
N3232 8.810 1.790 0 0 0
N3344 8.860 1.720 0 0 0
N918 9.040 2.070 0 0 0
N3113 9.060 1.210 0 0 0
N706 9.260 2.800 0 0 0
N249 9.280 2.000 0 0 0
N4160 10.350 1.080 0 0 0
N4000 10.260 1.180 0 0 0
N2212 9.190 1.810 0 0 0
N1465 9.200 2.120 0 0 0
N3196 9.570 2.290 0 0 0
N1446 9.400 2.540 0 0 0
N3785 10.120 1.910 0 0 0
N2749 10.340 1.680 0 0 0
N303 9.040 1.780 0 0 0
N1621 10.190 1.280 0 0 0
N3321 9.670 1.000 0 0 0
N2282 9.630 1.020 0 0 0
N602 9.310 1.920 0 0 0
N3568 8.970 1.850 0 0 0
N3421 9.040 1.790 0 0 0
N2056 8.590 2.020 0 0 0
N2864 8.690 2.060 0 0 0
N2216 9.320 1.430 0 0 0
N345 9.550 0.700 0 0 0
N2082 8.980 2.780 0 0 0
N1340 8.920 2.610 0 0 0
N4035 9.450 1.210 0 0 0
N26 9.650 1.160 0 0 0
N36 7.820 2.800 0 0 0
N4331 7.740 2.910 0 0 0
N687 9.320 2.300 0 0 0
N2702 9.750 2.120 0 0 0
N81 10.100 1.430 0 0 0
N785 10.090 1.440 0 0 0
N1699 9.140 2.120 0 0 0
N1200 8.360 3.210 0 0 0
N2150 9.490 1.500 0 0 0
N2196 7.840 3.170 0 0 0
N1202 9.440 1.900 0 0 0
N2637 6.260 5.250 0 0 0
N4009 8.940 2.600 0 0 0
N3984 8.930 2.510 0 0 0
N4028 8.910 2.300 0 0 0
N2736 9.460 1.580 0 0 0
N1853 9.220 1.310 0 0 0
N3854 9.400 1.150 0 0 0
N1593 8.920 2.280 0 0 0
N2521 9.010 2.750 0 0 0
N51 9.120 1.500 0 0 0
N2824 9.140 1.520 0 0 0
N1560 10.130 1.610 0 0 0
N808 10.230 1.540 0 0 0
N825 8.170 2.540 0 0 0
N2288 8.190 2.580 0 0 0
N415 9.520 1.950 0 0 0
N710 8.500 3.040 0 0 0
N1917 8.880 1.900 0 0 0
N3564 8.820 2.060 0 0 0
N524 8.170 2.990 0 0 0
N4189 9.350 2.060 0 0 0
N736 9.290 1.930 0 0 0
N2363 9.040 2.550 0 0 0
N280 8.950 2.460 0 0 0
N614 10.030 1.240 0 0 0
N339 8.040 3.320 0 0 0
N3320 9.700 1.620 0 0 0
N1667 7.960 3.650 0 0 0
N3426 9.340 1.750 0 0 0
S9 8.340 3.074 0 0 0
N2974 8.580 2.110 0 0 0
N2256 8.640 1.850 0 0 0
N144 8.040 2.430 0 0 0
N309 7.940 2.460 0 0 0
N3415 9.400 2.180 0 0 0
N727 8.970 2.420 0 0 0
N4188 9.200 2.320 0 0 0
N3029 9.830 1.840 0 0 0
N707 9.920 1.800 0 0 0
N1751 6.140 5.190 0 0 0
N3482 6.220 4.970 0 0 0
N507 8.310 3.040 0 0 0
N153 10.700 1.380 0 0 0
N3275 8.820 2.990 0 0 0
N3545 8.860 3.160 0 0 0
N4187 9.220 1.680 0 0 0
N3449 9.180 2.530 0 0 0
N3703 9.230 1.280 0 0 0
S10 10.540 1.050 0 0 0
N3714 10.190 1.500 0 0 0
N1292 10.440 1.300 0 0 0
N2618 10.090 1.620 0 0 0
N293 8.790 3.200 0 0 0
N71 8.890 1.790 0 0 0
N2247 9.150 1.510 0 0 0
N3826 9.260 1.390 0 0 0
N2584 9.710 1.510 0 0 0
N1825 9.600 1.670 0 0 0
N2989 9.360 1.490 0 0 0
N2136 8.920 1.910 0 0 0
N3649 9.320 1.390 0 0 0
N1134 9.370 1.380 0 0 0
N2304 9.880 1.490 0 0 0
N377 9.370 1.890 0 0 0
N4143 9.230 2.260 0 0 0
N2605 8.960 2.910 0 0 0
N1329 9.380 0.990 0 0 0
N2514 9.460 0.940 0 0 0
N1535 9.370 1.770 0 0 0
N681 9.340 1.850 0 0 0
N2228 8.660 1.900 0 0 0
N2341 8.560 1.990 0 0 0
N730 9.450 1.890 0 0 0
N1928 9.160 1.700 0 0 0
N1932 9.150 1.670 0 0 0
N4348 9.400 1.290 0 0 0
N1554 9.300 1.220 0 0 0
N644 9.500 2.020 0 0 0
N3940 9.500 2.030 0 0 0
N1192 9.050 2.270 0 0 0
N4103 8.920 2.420 0 0 0
N762 9.890 0.640 0 0 0
N3083 9.890 0.850 0 0 0
N3715 8.890 1.790 0 0 0
N863 6.970 3.840 0 0 0
N1801 7.030 3.850 0 0 0
N1665 9.220 1.690 0 0 0
N3658 9.140 1.620 0 0 0
N2006 9.000 1.660 0 0 0
N2034 9.160 2.210 0 0 0
N1362 9.890 1.350 0 0 0
N2950 9.940 1.380 0 0 0
N2595 10.030 2.230 0 0 0
N2029 10.100 1.760 0 0 0
N3093 9.400 1.850 0 0 0
N3805 9.160 1.330 0 0 0
N3085 9.180 1.300 0 0 0
N1337 9.320 2.160 0 0 0
N496 9.300 1.530 0 0 0
N4082 8.160 2.340 0 0 0
N2352 8.150 2.380 0 0 0
N663 8.480 2.990 0 0 0
N1267 9.670 1.560 0 0 0
N1511 9.010 2.040 0 0 0
N3182 9.910 1.070 0 0 0
N167 10.830 1.270 0 0 0
N2767 10.200 1.260 0 0 0
N2442 9.600 0.730 0 0 0
N4306 8.180 2.340 0 0 0
N1081 9.280 2.920 0 0 0
N2000 9.270 2.420 0 0 0
N2085 8.620 2.280 0 0 0
N3901 8.960 2.790 0 0 0
N816 9.010 2.090 0 0 0
N4041 8.330 4.610 0 0 0
N330 8.250 3.790 0 0 0
N1441 8.870 2.290 0 0 0
N28 8.780 2.410 0 0 0
N3280 9.160 1.290 0 0 0
N4355 8.900 2.100 0 0 0
N844 9.660 1.070 0 0 0
N2920 10.000 1.550 0 0 0
N3466 10.040 1.510 0 0 0
N3187 8.930 2.550 0 0 0
N2738 9.260 1.470 0 0 0
N3006 9.330 1.390 0 0 0
N2563 9.200 1.800 0 0 0
N4057 10.130 1.480 0 0 0
N2050 8.810 2.350 0 0 0
N4095 9.200 1.930 0 0 0
N4325 9.280 1.250 0 0 0
N100 9.320 1.330 0 0 0
N621 9.180 1.850 0 0 0
N192 8.700 1.560 0 0 0
N4178 9.520 2.010 0 0 0
N3546 8.450 2.830 0 0 0
N2342 8.580 1.670 0 0 0
N3892 9.260 1.710 0 0 0
N2232 9.320 1.660 0 0 0
N3624 9.340 1.320 0 0 0
N2797 8.920 1.730 0 0 0
N2552 9.220 1.330 0 0 0
N5 10.240 1.280 0 0 0
N2519 9.740 1.390 0 0 0
N4200 9.320 2.320 0 0 0
N2972 9.450 2.160 0 0 0
N2191 8.970 1.630 0 0 0
N701 9.050 1.650 0 0 0
N2531 9.140 2.230 0 0 0
N2038 8.940 1.790 0 0 0
N3266 9.020 1.650 0 0 0
N1170 9.010 1.500 0 0 0
N4110 8.890 1.660 0 0 0
N1756 8.980 1.490 0 0 0
N2747 8.970 1.420 0 0 0
N3994 9.400 2.060 0 0 0
N3171 9.430 2.360 0 0 0
N3255 9.180 1.620 0 0 0
N61 9.250 1.540 0 0 0
N588 9.190 1.390 0 0 0
N3807 9.350 1.870 0 0 0
N3709 9.420 1.550 0 0 0
N2594 8.490 2.380 0 0 0
N2239 9.150 1.250 0 0 0
N97 9.070 1.400 0 0 0
N353 9.000 1.530 0 0 0
N4102 9.070 1.510 0 0 0
N2112 8.720 1.870 0 0 0
N3343 8.650 2.620 0 0 0
N3296 8.600 2.650 0 0 0
N104 9.740 1.130 0 0 0
N4269 9.830 0.890 0 0 0
N1044 9.820 1.380 0 0 0
N835 9.110 2.070 0 0 0
N1759 7.820 2.800 0 0 0
N2829 7.870 2.750 0 0 0
N3798 9.140 2.020 0 0 0
N12 8.490 2.420 0 0 0
N3081 8.540 2.460 0 0 0
N3077 9.040 1.900 0 0 0
N1982 9.500 1.960 0 0 0
N3102 9.450 1.880 0 0 0
N1276 9.330 2.200 0 0 0
N786 10.210 1.250 0 0 0
N4205 9.900 0.950 0 0 0
N2109 9.030 2.720 0 0 0
N1319 9.580 2.060 0 0 0
N3920 8.710 2.090 0 0 0
N4289 9.880 1.160 0 0 0
N3981 9.070 2.020 0 0 0
N1089 9.040 2.200 0 0 0
N4030 10.130 2.060 0 0 0
N1018 10.120 2.070 0 0 0
N3821 9.500 1.010 0 0 0
N1555 8.500 2.220 0 0 0
N1508 8.520 2.080 0 0 0
N2557 8.840 2.030 0 0 0
N2436 9.260 1.390 0 0 0
N4037 9.320 1.290 0 0 0
N3965 8.920 1.640 0 0 0
N3126 8.980 1.730 0 0 0
N3493 8.860 1.730 0 0 0
N3782 8.890 1.770 0 0 0
N4229 8.820 2.280 0 0 0
N3031 9.150 2.030 0 0 0
N1722 9.770 1.580 0 0 0
N2525 9.900 1.350 0 0 0
N2978 8.900 2.030 0 0 0
N4117 8.890 2.050 0 0 0
N3456 9.130 1.560 0 0 0
N2634 9.140 1.540 0 0 0
N2234 9.580 1.350 0 0 0
N2619 9.790 1.350 0 0 0
N3724 7.010 3.870 0 0 0
N398 6.980 4.330 0 0 0
N11 8.240 2.860 0 0 0
N2345 5.460 5.400 0 0 0
N134 5.480 5.450 0 0 0
N1499 9.500 1.090 0 0 0
N1858 9.100 1.770 0 0 0
N4327 8.920 2.040 0 0 0
N1402 8.910 1.560 0 0 0
N3551 8.810 1.660 0 0 0
N849 9.310 1.830 0 0 0
N549 9.170 1.850 0 0 0
S11 9.930 1.035 0 0 0
N1989 8.890 1.870 0 0 0
N2208 8.300 2.660 0 0 0
N2233 8.300 2.930 0 0 0
N3032 8.860 1.640 0 0 0
N1926 8.800 1.700 0 0 0
N4236 8.360 2.470 0 0 0
N2205 9.800 1.520 0 0 0
N2926 9.530 1.410 0 0 0
N983 10.230 1.700 0 0 0
N532 8.670 2.860 0 0 0
N2745 9.680 2.860 0 0 0
S12 9.800 2.482 0 0 0
N1764 10.270 1.480 0 0 0
N2110 9.400 1.300 0 0 0
N3968 9.400 1.320 0 0 0
N4050 9.200 2.470 0 0 0
N3259 9.280 1.990 0 0 0
N342 8.710 2.020 0 0 0
N2965 9.040 1.890 0 0 0
N3181 8.640 2.320 0 0 0
N1411 9.160 1.770 0 0 0
N2281 9.070 1.920 0 0 0
N2407 9.200 1.550 0 0 0
N405 9.300 1.340 0 0 0
N2667 9.160 1.350 0 0 0
N3147 9.200 1.670 0 0 0
N3264 8.670 2.020 0 0 0
N911 8.640 1.990 0 0 0
N2888 10.130 1.400 0 0 0
N1197 10.190 1.180 0 0 0
N3204 9.870 0.610 0 0 0
N544 8.960 2.200 0 0 0
N2886 8.990 1.770 0 0 0
N3591 8.760 2.560 0 0 0
N3097 8.840 2.490 0 0 0
N2872 9.270 2.120 0 0 0
N3012 10.040 1.600 0 0 0
N635 9.610 0.940 0 0 0
N3865 9.680 2.150 0 0 0
N552 9.580 2.420 0 0 0
N3208 9.030 2.060 0 0 0
N2101 8.790 1.710 0 0 0
N376 9.210 1.840 0 0 0
N1967 9.340 1.920 0 0 0
N2007 10.210 1.240 0 0 0
N1148 9.400 2.090 0 0 0
N3801 8.590 2.080 0 0 0
N3096 8.610 2.130 0 0 0
N3133 9.020 1.590 0 0 0
N1827 8.980 1.640 0 0 0
N3445 9.812 1.577 0 0 0
N683 8.890 2.280 0 0 0
N180 9.330 1.470 0 0 0
N2340 9.320 1.490 0 0 0
N2137 8.900 2.230 0 0 0
N821 8.000 2.530 0 0 0
N2977 9.200 1.430 0 0 0
N3879 9.300 1.380 0 0 0
N1504 9.410 1.710 0 0 0
N222 8.950 2.220 0 0 0
N1523 8.030 2.830 0 0 0
N3177 7.990 3.290 0 0 0
N2269 8.170 2.930 0 0 0
N3678 8.130 2.740 0 0 0
N936 8.960 1.550 0 0 0
N109 9.730 1.120 0 0 0
N4127 9.150 2.630 0 0 0
N1060 9.030 2.940 0 0 0
N539 8.620 2.270 0 0 0
N140 9.820 1.410 0 0 0
N1938 9.240 2.150 0 0 0
S13 8.030 3.134 0 0 0
N4036 9.670 1.120 0 0 0
N719 9.480 1.370 0 0 0
N2327 9.150 1.800 0 0 0
N625 9.200 1.690 0 0 0
N1940 10.470 1.640 0 0 0
N3852 10.470 0.670 0 0 0
N950 10.840 1.100 0 0 0
N3575 9.640 2.220 0 0 0
N2671 8.840 1.950 0 0 0
N2819 8.880 1.920 0 0 0
N2553 8.600 2.980 0 0 0
N3764 8.560 3.280 0 0 0
N2624 9.180 1.450 0 0 0
N4260 9.890 1.430 0 0 0
N1168 10.080 1.200 0 0 0
N1393 9.140 1.410 0 0 0
N855 9.190 1.360 0 0 0
N1580 9.160 1.910 0 0 0
N1461 9.160 1.830 0 0 0
N4204 9.000 2.140 0 0 0
N39 8.840 2.400 0 0 0
N1673 9.300 1.390 0 0 0
N1952 9.220 1.610 0 0 0
N3481 9.130 1.470 0 0 0
N2115 9.040 1.740 0 0 0
N1587 10.200 1.320 0 0 0
N196 10.040 1.490 0 0 0
N2289 10.220 1.110 0 0 0
N4353 10.220 1.400 0 0 0
N78 9.330 1.490 0 0 0
N3928 9.290 1.450 0 0 0
N2731 9.320 1.980 0 0 0
N3978 9.030 2.050 0 0 0
N3125 8.800 1.980 0 0 0
N3581 9.860 1.420 0 0 0
N399 9.880 1.380 0 0 0
N2298 9.270 2.500 0 0 0
N2522 9.350 2.260 0 0 0
N1769 9.200 1.390 0 0 0
N1026 9.210 1.510 0 0 0
N1456 10.670 1.530 0 0 0
N3213 8.990 2.110 0 0 0
N3219 8.990 2.310 0 0 0
N494 8.970 2.070 0 0 0
N3408 9.000 2.180 0 0 0
N1144 9.000 1.870 0 0 0
N1470 9.040 1.650 0 0 0
N2830 9.130 1.570 0 0 0
N3666 9.040 2.630 0 0 0
N1607 9.360 2.210 0 0 0
N3176 9.370 1.440 0 0 0
N3990 9.170 1.360 0 0 0
N1184 9.320 2.190 0 0 0
N589 10.040 0.610 0 0 0
N3026 8.870 1.620 0 0 0
N2838 9.400 2.400 0 0 0
N4029 9.270 2.430 0 0 0
N2012 9.450 1.050 0 0 0
N2263 9.450 1.110 0 0 0
N290 9.940 1.560 0 0 0
N1976 8.990 2.360 0 0 0
N3842 8.890 2.870 0 0 0
N2602 8.950 1.940 0 0 0
N1492 8.740 2.500 0 0 0
N852 8.220 3.130 0 0 0
N2841 10.310 1.560 0 0 0
N2222 10.410 1.500 0 0 0
N1650 8.860 1.750 0 0 0
N2160 9.000 1.660 0 0 0
N3916 10.050 1.570 0 0 0
N1085 9.810 1.830 0 0 0
N1846 9.780 1.720 0 0 0
N3750 8.670 2.040 0 0 0
N2771 8.730 1.930 0 0 0
N228 9.270 2.190 0 0 0
N3286 9.300 2.130 0 0 0
N2593 9.120 1.340 0 0 0
N3340 8.970 1.440 0 0 0
N541 9.570 1.510 0 0 0
N3739 8.850 2.220 0 0 0
N4 8.930 2.250 0 0 0
N1596 9.670 1.820 0 0 0
N2881 9.580 1.870 0 0 0
N1154 8.770 2.170 0 0 0
N3494 7.280 3.680 0 0 0
N1570 9.760 1.160 0 0 0
N368 9.830 1.290 0 0 0
N1887 9.440 1.910 0 0 0
N2144 9.520 1.860 0 0 0
N1407 8.080 2.900 0 0 0
N1720 8.390 2.950 0 0 0
N347 8.690 2.850 0 0 0
N647 9.640 1.910 0 0 0
N4336 9.200 2.080 0 0 0
N3094 9.040 1.770 0 0 0
N3100 8.690 1.910 0 0 0
N3744 9.190 1.480 0 0 0
N508 9.200 1.800 0 0 0
N3790 9.210 2.010 0 0 0
N199 6.460 4.780 0 0 0
N3018 9.410 1.240 0 0 0
N2339 8.940 1.430 0 0 0
N306 8.940 1.400 0 0 0
N1694 8.240 2.820 0 0 0
N2705 10.050 1.260 0 0 0
N1641 7.950 3.390 0 0 0
N921 9.340 1.400 0 0 0
N1600 9.280 1.440 0 0 0
N3098 8.820 2.400 0 0 0
N4190 9.300 1.240 0 0 0
N3470 9.000 2.740 0 0 0
N3399 8.980 3.050 0 0 0
N737 9.150 1.730 0 0 0
N2951 9.050 1.990 0 0 0
N797 9.070 1.700 0 0 0
N1561 9.050 1.740 0 0 0
N1933 9.060 2.400 0 0 0
N4191 9.170 2.430 0 0 0
N3135 8.960 2.190 0 0 0
N156 9.450 0.900 0 0 0
N2616 9.410 0.940 0 0 0
N3690 9.660 1.130 0 0 0
N458 9.400 1.480 0 0 0
N2868 9.430 1.430 0 0 0
N3640 9.240 2.170 0 0 0
N3659 9.310 1.650 0 0 0
N3863 9.050 1.990 0 0 0
N3734 9.190 2.320 0 0 0
N1164 9.020 2.800 0 0 0
N1459 8.900 2.960 0 0 0
N1714 8.280 2.350 0 0 0
N3070 8.370 3.030 0 0 0
N1760 9.240 1.490 0 0 0
N2727 9.190 1.560 0 0 0
N4270 9.200 1.370 0 0 0
N2492 9.380 1.120 0 0 0
N1380 9.370 1.090 0 0 0
N2392 10.440 1.350 0 0 0
N4106 10.610 1.160 0 0 0
N2877 9.150 1.300 0 0 0
N4177 9.250 1.750 0 0 0
N3315 8.780 2.760 0 0 0
N2242 8.860 2.990 0 0 0
N80 10.100 1.430 0 0 0
N3014 10.120 1.430 0 0 0
N1342 9.850 1.440 0 0 0
N1400 9.140 1.920 0 0 0
N238 9.860 1.740 0 0 0
N3161 9.120 1.220 0 0 0
N1835 9.610 2.010 0 0 0
N314 9.300 1.450 0 0 0
N927 8.870 2.570 0 0 0
N211 8.940 2.110 0 0 0
N3277 9.470 1.190 0 0 0
N3661 9.470 1.190 0 0 0
N3831 9.030 1.390 0 0 0
N2280 9.100 1.270 0 0 0
N3793 10.090 1.190 0 0 0
N3969 8.060 3.260 0 0 0
N2108 9.200 2.050 0 0 0
N686 11.070 0.960 0 0 0
N2098 9.420 1.510 0 0 0
N2145 9.310 1.400 0 0 0
N3665 9.380 1.420 0 0 0
N796 9.200 1.690 0 0 0
N1494 9.120 1.730 0 0 0
N4077 10.230 1.330 0 0 0
N2 9.200 1.370 0 0 0
N4216 9.200 1.370 0 0 0
N1308 9.400 1.470 0 0 0
N2609 9.280 1.280 0 0 0
N2178 9.240 1.340 0 0 0
N2770 9.310 0.930 0 0 0
N1649 9.400 0.980 0 0 0
N1464 8.720 2.830 0 0 0
N2610 8.750 2.760 0 0 0
N659 8.790 2.740 0 0 0
N1063 8.710 1.820 0 0 0
N632 8.700 1.740 0 0 0
N2625 9.890 1.720 0 0 0
N864 10.010 1.670 0 0 0
N477 8.830 2.840 0 0 0
N1408 8.830 2.350 0 0 0
N2758 9.650 1.100 0 0 0
N993 8.940 1.550 0 0 0
N745 9.550 1.490 0 0 0
N3205 9.400 1.170 0 0 0
N1064 9.260 1.730 0 0 0
S15 9.790 2.139 0 0 0
N274 10.380 1.210 0 0 0
N1865 9.960 1.540 0 0 0
N4223 8.600 2.520 0 0 0
N1838 8.820 2.070 0 0 0
N1999 9.260 1.500 0 0 0
N3563 9.220 1.340 0 0 0
N1620 9.220 1.400 0 0 0
N3595 8.370 2.240 0 0 0
N2435 8.310 2.840 0 0 0
N3832 10.490 0.970 0 0 0
N448 9.710 1.670 0 0 0
N358 9.720 1.540 0 0 0
N870 8.960 1.860 0 0 0
N840 8.610 2.860 0 0 0
N960 9.600 1.110 0 0 0
N3574 9.650 1.010 0 0 0
N932 9.030 1.940 0 0 0
N817 9.140 1.970 0 0 0
N2734 9.360 1.430 0 0 0
N3090 10.260 0.970 0 0 0
N1409 10.280 0.940 0 0 0
N322 10.020 1.640 0 0 0
N1623 9.160 1.780 0 0 0
N1038 9.290 2.120 0 0 0
N3513 7.950 2.780 0 0 0
N1584 9.300 1.510 0 0 0
N427 9.090 1.600 0 0 0
N1071 10.100 1.770 0 0 0
N2892 10.050 1.760 0 0 0
S16 9.390 1.630 0 0 0
N327 5.030 6.190 0 0 0
N32 9.000 1.570 0 0 0
N4019 9.030 1.400 0 0 0
N2414 9.300 1.380 0 0 0
N3881 9.360 1.600 0 0 0
N4342 8.690 2.400 0 0 0
N2656 10.060 1.470 0 0 0
N1579 10.030 1.520 0 0 0
N1559 8.890 1.760 0 0 0
N3726 9.370 1.170 0 0 0
N2837 9.650 1.080 0 0 0
N1102 8.760 2.200 0 0 0
N373 8.710 2.450 0 0 0
N2373 9.110 1.690 0 0 0
N1624 9.150 1.720 0 0 0
N2168 9.420 1.330 0 0 0
N3155 9.380 1.250 0 0 0
N1138 9.420 1.530 0 0 0
N1094 9.920 2.220 0 0 0
N2484 9.960 2.120 0 0 0
N4231 9.680 1.720 0 0 0
N1879 9.750 1.810 0 0 0
N83 8.920 1.590 0 0 0
N2577 9.400 1.500 0 0 0
N518 8.520 3.380 0 0 0
N909 8.850 1.630 0 0 0
N1748 8.880 1.650 0 0 0
N321 8.540 2.520 0 0 0
N1951 9.540 1.260 0 0 0
N2921 8.320 2.790 0 0 0
N2613 8.600 2.280 0 0 0
N2260 8.580 2.350 0 0 0
N65 9.080 1.610 0 0 0
N782 8.100 2.610 0 0 0
N2032 9.300 1.040 0 0 0
N1420 8.750 3.520 0 0 0
N4319 8.060 2.670 0 0 0
N4065 7.990 2.720 0 0 0
S18 10.070 0.577 0 0 0
N3828 8.850 1.990 0 0 0
N3677 11.000 1.260 0 0 0
N1889 9.400 1.290 0 0 0
N1608 9.050 1.860 0 0 0
N820 8.910 2.470 0 0 0
N2426 9.890 1.890 0 0 0
N4198 8.200 3.270 0 0 0
N951 8.780 2.950 0 0 0
N2690 8.870 2.780 0 0 0
N3949 9.170 2.340 0 0 0
N3306 8.670 2.220 0 0 0
N3355 9.350 1.640 0 0 0
N1970 9.350 1.490 0 0 0
N3848 9.920 1.980 0 0 0
N1286 9.920 2.020 0 0 0
N1423 8.910 1.680 0 0 0
N1177 9.300 1.050 0 0 0
N1866 8.830 1.830 0 0 0
N3787 8.960 1.720 0 0 0
N2043 10.020 1.200 0 0 0
N4363 9.990 1.250 0 0 0
N1390 9.570 1.850 0 0 0
N1602 9.270 2.280 0 0 0
N3992 8.380 3.220 0 0 0
N2720 8.210 3.170 0 0 0
N1269 9.410 1.170 0 0 0
N853 9.400 1.200 0 0 0
N215 9.400 1.260 0 0 0
N613 9.190 1.100 0 0 0
N633 9.100 1.280 0 0 0
N2477 9.040 1.970 0 0 0
N827 9.070 1.400 0 0 0
N842 9.170 2.240 0 0 0
N3938 10.000 1.330 0 0 0
N2802 10.000 1.650 0 0 0
N4097 9.200 1.900 0 0 0
N2189 7.640 4.080 0 0 0
N431 4.960 5.550 0 0 0
N3027 9.400 1.130 0 0 0
N753 9.160 1.690 0 0 0
N878 9.620 1.360 0 0 0
N1299 9.300 1.400 0 0 0
N2093 9.340 1.320 0 0 0
N1332 9.260 2.270 0 0 0
N2367 9.240 2.300 0 0 0
N4168 9.200 1.360 0 0 0
N3239 8.670 2.720 0 0 0
N1104 8.620 2.640 0 0 0
N2069 9.350 1.580 0 0 0
N3011 9.350 1.650 0 0 0
S19 10.000 1.177 0 0 0
N111 10.000 1.360 0 0 0
N640 9.060 2.520 0 0 0
N591 8.770 1.910 0 0 0
N2161 9.400 1.340 0 0 0
N4301 8.320 4.680 0 0 0
N502 8.310 4.710 0 0 0
N2545 9.040 1.660 0 0 0
N4089 9.060 1.590 0 0 0
N1612 9.210 2.890 0 0 0
N2642 9.040 1.680 0 0 0
N3572 9.150 2.720 0 0 0
N4320 9.050 1.870 0 0 0
N3040 9.150 2.170 0 0 0
N1962 9.110 2.940 0 0 0
N1212 8.640 2.070 0 0 0
N2338 9.250 1.290 0 0 0
N2422 9.280 1.800 0 0 0
N2993 9.380 1.780 0 0 0
N3131 8.030 3.860 0 0 0
N141 8.030 3.570 0 0 0
N3127 9.200 1.450 0 0 0
N1727 6.030 4.700 0 0 0
N3042 8.840 1.740 0 0 0
N2074 8.700 3.010 0 0 0
N3143 8.690 2.810 0 0 0
N3440 9.090 2.070 0 0 0
N1585 9.000 2.150 0 0 0
N3847 9.400 2.850 0 0 0
N155 9.260 1.920 0 0 0
N248 9.400 1.340 0 0 0
N2060 10.610 1.180 0 0 0
N1953 8.770 3.190 0 0 0
N3477 9.340 1.940 0 0 0
N3871 7.100 3.400 0 0 0
N3617 7.070 3.420 0 0 0
N1681 9.320 1.310 0 0 0
N2154 11.110 1.220 0 0 0
N138 10.950 1.310 0 0 0
N2158 8.500 2.340 0 0 0
N2567 8.440 2.470 0 0 0
N2147 8.730 3.200 0 0 0
N4238 9.020 1.990 0 0 0
N1848 9.340 1.850 0 0 0
N3428 9.290 1.680 0 0 0
N426 9.190 1.490 0 0 0
N1133 9.120 1.550 0 0 0
N784 10.380 1.250 0 0 0
N3696 9.160 1.970 0 0 0
N2052 9.140 2.130 0 0 0
N2391 8.970 2.600 0 0 0
N2438 9.040 1.590 0 0 0
N2025 9.280 1.170 0 0 0
N1376 9.310 1.090 0 0 0
N3149 9.230 0.560 0 0 0
N2008 9.640 1.240 0 0 0
N486 8.910 1.450 0 0 0
N2853 8.880 1.520 0 0 0
N391 9.960 1.440 0 0 0
N3846 6.760 4.360 0 0 0
N435 9.280 1.420 0 0 0
N4286 9.280 1.060 0 0 0
N1301 9.100 1.670 0 0 0
N2493 9.200 2.250 0 0 0
N1249 7.750 3.710 0 0 0
N2163 7.850 2.880 0 0 0
N3272 8.710 2.430 0 0 0
N974 8.890 2.240 0 0 0
N1351 6.000 5.650 0 0 0
N1766 5.910 5.870 0 0 0
N1139 9.090 2.260 0 0 0
N2561 9.490 1.420 0 0 0
N2469 9.700 1.240 0 0 0
N3197 8.990 1.580 0 0 0
N172 10.040 0.610 0 0 0
N2273 8.820 2.560 0 0 0
N3499 8.900 2.690 0 0 0
N452 9.520 1.080 0 0 0
N1678 8.590 2.500 0 0 0
N569 9.250 1.630 0 0 0
N3119 9.250 1.550 0 0 0
N3071 9.070 1.730 0 0 0
N3222 9.270 1.490 0 0 0
N3902 9.050 1.810 0 0 0
N3959 9.050 1.840 0 0 0
N1174 8.930 1.540 0 0 0
N1882 8.920 2.010 0 0 0
N2240 9.060 1.520 0 0 0
N868 10.180 1.370 0 0 0
N1619 10.260 1.310 0 0 0
N3835 9.400 1.470 0 0 0
N2784 9.150 1.510 0 0 0
N4281 9.170 1.470 0 0 0
N3759 8.920 2.050 0 0 0
N3106 8.880 2.100 0 0 0
N848 9.000 1.380 0 0 0
N2955 9.660 0.920 0 0 0
N2474 9.500 1.190 0 0 0
N4073 7.810 2.950 0 0 0
N2369 8.170 2.260 0 0 0
N3608 8.800 1.580 0 0 0
N3721 10.300 1.520 0 0 0
N1204 10.260 1.520 0 0 0
N1454 9.370 1.200 0 0 0
N4118 9.130 1.270 0 0 0
N1345 9.190 1.260 0 0 0
N3684 9.040 2.190 0 0 0
N1723 9.950 1.400 0 0 0
N1413 9.110 2.150 0 0 0
N1211 9.180 2.230 0 0 0
N1392 9.250 1.400 0 0 0
N3570 9.220 2.500 0 0 0
N2420 10.390 1.380 0 0 0
N1396 9.110 2.140 0 0 0
N381 9.160 1.870 0 0 0
N1548 9.290 2.390 0 0 0
N4360 8.770 2.500 0 0 0
N571 8.770 2.420 0 0 0
N2873 8.830 2.870 0 0 0
N3950 9.220 1.790 0 0 0
N829 9.200 2.710 0 0 0
N4349 9.270 1.460 0 0 0
N3580 9.260 1.490 0 0 0
N1349 9.030 1.220 0 0 0
N2759 8.990 1.910 0 0 0
N3647 9.680 1.100 0 0 0
N691 9.110 1.740 0 0 0
N3035 9.150 1.730 0 0 0
N1682 9.120 2.040 0 0 0
N726 9.080 1.730 0 0 0
N1588 8.580 2.790 0 0 0
N2180 8.420 2.510 0 0 0
N333 8.860 3.080 0 0 0
N171 9.300 2.310 0 0 0
N3158 8.940 1.490 0 0 0
N3694 8.720 1.810 0 0 0
N219 9.260 1.810 0 0 0
N2646 9.300 1.580 0 0 0
N2695 10.350 1.420 0 0 0
N2815 10.210 0.390 0 0 0
N3705 10.590 1.250 0 0 0
N1175 9.320 2.270 0 0 0
N1296 9.200 1.350 0 0 0
N430 9.350 1.580 0 0 0
N803 9.540 2.380 0 0 0
N2540 8.410 3.510 0 0 0
N865 8.420 2.980 0 0 0
N3079 9.010 1.970 0 0 0
N2712 9.080 1.260 0 0 0
N1460 9.200 1.300 0 0 0
N514 9.180 1.350 0 0 0
N3243 8.750 1.890 0 0 0
N901 8.950 1.600 0 0 0
N2755 9.780 1.730 0 0 0
N3730 9.460 1.530 0 0 0
N1359 8.810 1.610 0 0 0
N3736 8.830 1.680 0 0 0
N1632 8.580 2.540 0 0 0
N4250 9.150 1.660 0 0 0
N4324 8.720 1.740 0 0 0
N332 8.780 1.580 0 0 0
N1657 9.230 1.160 0 0 0
N3005 9.350 1.140 0 0 0
N3701 8.700 2.660 0 0 0
N3282 9.240 2.190 0 0 0
N372 8.620 1.830 0 0 0
S20 8.460 3.341 0 0 0
N1668 8.280 4.650 0 0 0
N68 10.520 1.600 0 0 0
N2578 10.670 1.260 0 0 0
N2880 9.250 1.390 0 0 0
N3605 9.320 1.390 0 0 0
N2037 8.850 3.050 0 0 0
N4180 9.540 2.030 0 0 0
N2580 9.930 1.550 0 0 0
N608 10.060 1.470 0 0 0
N673 10.030 1.530 0 0 0
N3334 9.990 1.710 0 0 0
N1921 10.040 1.380 0 0 0
N101 9.430 2.460 0 0 0
N3717 9.060 2.520 0 0 0
N1661 9.460 1.240 0 0 0
N1070 9.310 1.460 0 0 0
N96 9.190 2.320 0 0 0
N2612 9.750 1.710 0 0 0
N973 9.910 1.460 0 0 0
N705 8.610 1.860 0 0 0
S21 8.630 2.227 0 0 0
N3927 8.610 1.910 0 0 0
N1151 8.890 1.620 0 0 0
N64 9.990 1.350 0 0 0
N620 7.950 3.260 0 0 0
N3947 9.300 1.290 0 0 0
N2505 9.020 1.610 0 0 0
N3566 9.120 1.890 0 0 0
N1253 8.800 1.800 0 0 0
N1031 9.540 1.240 0 0 0
N1614 8.860 1.620 0 0 0
N4240 8.720 1.850 0 0 0
N227 10.020 1.750 0 0 0
N3853 9.370 1.730 0 0 0
N2794 7.970 3.620 0 0 0
N2988 8.650 1.900 0 0 0
N1655 9.140 1.300 0 0 0
N2396 9.120 1.300 0 0 0
N2291 9.090 2.030 0 0 0
N3438 9.510 1.690 0 0 0
N522 9.300 1.300 0 0 0
N3651 9.700 1.510 0 0 0
N3444 9.990 1.290 0 0 0
N3369 9.200 1.980 0 0 0
N2714 9.400 0.950 0 0 0
N2673 9.600 2.120 0 0 0
N2527 9.850 1.710 0 0 0
N2087 9.000 2.270 0 0 0
N298 9.140 1.370 0 0 0
N3527 9.180 1.310 0 0 0
N1272 9.300 1.340 0 0 0
N925 8.830 2.150 0 0 0
N757 10.380 1.260 0 0 0
N1807 9.940 1.590 0 0 0
N4338 9.110 1.920 0 0 0
N4156 9.100 1.750 0 0 0
N617 9.160 1.590 0 0 0
N709 9.200 1.980 0 0 0
N3454 8.620 2.040 0 0 0
N2889 9.650 0.920 0 0 0
N444 9.530 0.790 0 0 0
N4293 9.170 2.410 0 0 0
N1950 9.180 2.500 0 0 0
N1257 8.780 1.790 0 0 0
N3874 8.750 2.030 0 0 0
N1517 9.760 1.120 0 0 0
N183 9.410 1.900 0 0 0
N1527 8.990 1.910 0 0 0
N674 8.810 2.620 0 0 0
N1910 10.190 1.660 0 0 0
N1757 10.310 1.430 0 0 0
N550 9.300 2.150 0 0 0
N1132 10.620 1.400 0 0 0
N4012 10.420 1.620 0 0 0
N2445 9.790 1.410 0 0 0
N2555 9.610 1.680 0 0 0
N2047 9.200 2.490 0 0 0
N1118 10.120 1.470 0 0 0
N2766 8.540 1.830 0 0 0
N515 8.610 1.730 0 0 0
N2924 7.940 2.900 0 0 0
N3054 8.990 2.300 0 0 0
N1780 9.190 1.930 0 0 0
N2831 9.860 1.850 0 0 0
N3611 9.200 1.330 0 0 0
N3490 8.570 2.510 0 0 0
N1115 8.540 2.420 0 0 0
N750 9.080 1.560 0 0 0
N2760 9.030 2.350 0 0 0
N693 4.910 6.930 0 0 0
N225 9.230 1.790 0 0 0
N2692 9.100 2.170 0 0 0
N3246 9.310 1.780 0 0 0
N3767 9.620 1.580 0 0 0
N1007 8.930 1.940 0 0 0
N3578 8.770 2.150 0 0 0
N44 8.900 1.770 0 0 0
N1145 9.520 1.210 0 0 0
N2931 9.520 1.440 0 0 0
S22 8.810 1.817 0 0 0
N1036 9.080 2.320 0 0 0
N3474 9.250 2.110 0 0 0
N3850 10.200 1.310 0 0 0
N1158 10.320 1.150 0 0 0
N2418 8.700 2.050 0 0 0
N4133 9.160 1.820 0 0 0
N3945 10.230 1.170 0 0 0
N4135 6.270 5.300 0 0 0
N3356 8.510 2.440 0 0 0
N2165 9.140 2.060 0 0 0
N900 9.200 1.670 0 0 0
N1839 9.420 1.800 0 0 0
N2202 9.430 1.750 0 0 0
N766 9.660 0.840 0 0 0
N1011 9.660 0.820 0 0 0
N3603 10.900 0.860 0 0 0
N266 10.150 1.780 0 0 0
N2660 9.200 2.200 0 0 0
N3451 9.080 2.290 0 0 0
N2929 9.020 1.550 0 0 0
N4014 10.190 2.110 0 0 0
N1270 10.170 1.920 0 0 0
N470 8.980 1.850 0 0 0
N2922 8.940 2.350 0 0 0
N2678 9.750 1.440 0 0 0
N4011 9.490 1.110 0 0 0
N3190 9.780 1.020 0 0 0
N590 8.860 1.840 0 0 0
N1480 8.740 2.100 0 0 0
N1983 9.080 1.520 0 0 0
N1130 8.980 1.670 0 0 0
N3295 8.880 1.780 0 0 0
N2724 9.310 1.600 0 0 0
N1738 9.100 1.290 0 0 0
N783 9.200 1.370 0 0 0
N3310 9.410 1.370 0 0 0
N2395 8.760 1.920 0 0 0
N3882 9.230 1.360 0 0 0
N2295 9.110 2.060 0 0 0
N2142 8.850 2.330 0 0 0
N3535 9.050 1.460 0 0 0
N546 9.300 1.160 0 0 0
N3594 9.450 1.150 0 0 0
N299 9.200 1.690 0 0 0
N1191 9.060 1.730 0 0 0
N2379 8.610 1.990 0 0 0
N790 8.620 2.450 0 0 0
N1265 9.490 2.010 0 0 0
N3170 8.880 1.790 0 0 0
N3189 9.140 2.230 0 0 0
N3748 9.490 1.530 0 0 0
N1307 9.250 1.800 0 0 0
N509 9.210 2.340 0 0 0
N906 9.030 2.220 0 0 0
N2927 9.110 2.150 0 0 0
N114 9.090 1.830 0 0 0
N2979 9.320 1.550 0 0 0
N31 9.270 1.610 0 0 0
N2100 9.060 2.480 0 0 0
N3386 8.610 2.960 0 0 0
N108 8.880 1.940 0 0 0
N2461 8.680 2.550 0 0 0
N1112 9.290 1.700 0 0 0
N3922 10.650 1.020 0 0 0
N2149 10.700 0.970 0 0 0
N1322 9.350 1.430 0 0 0
N577 9.650 1.220 0 0 0
N2650 7.760 3.030 0 0 0
N2054 7.730 3.120 0 0 0
N3781 9.340 1.640 0 0 0
N1141 9.440 1.900 0 0 0
N4235 8.840 2.210 0 0 0
N4007 8.900 2.340 0 0 0
N781 8.940 2.120 0 0 0
N2135 9.020 1.930 0 0 0
N536 9.880 0.990 0 0 0
N1875 9.060 1.400 0 0 0
S27 8.880 2.469 0 0 0
N593 8.830 2.380 0 0 0
N4075 9.860 1.980 0 0 0
N805 9.680 1.820 0 0 0
N366 9.320 1.640 0 0 0
N374 8.200 2.810 0 0 0
N3023 9.260 1.150 0 0 0
N525 9.260 1.280 0 0 0
N2139 8.850 1.640 0 0 0
N4294 9.170 1.860 0 0 0
N3554 8.580 0.700 0 0 0
N1201 8.560 0.700 0 0 0
N2700 8.890 2.400 0 0 0
N3156 9.110 1.580 0 0 0
N1205 9.050 2.420 0 0 0
N1817 9.500 1.850 0 0 0
N2711 10.160 1.390 0 0 0
N3385 10.220 1.340 0 0 0
N1475 9.110 1.610 0 0 0
N3508 10.470 0.760 0 0 0
N2740 9.560 1.230 0 0 0
N2105 8.630 1.810 0 0 0
N497 8.670 1.800 0 0 0
N3775 8.990 2.110 0 0 0
N1002 9.410 1.620 0 0 0
N3914 9.420 1.610 0 0 0
N4183 8.600 1.920 0 0 0
N4015 8.710 2.700 0 0 0
N1857 10.150 1.390 0 0 0
N2122 10.700 1.240 0 0 0
N955 8.820 2.680 0 0 0
N2049 8.810 2.140 0 0 0
N1509 8.780 2.670 0 0 0
N1934 9.300 1.600 0 0 0
N4262 9.310 2.440 0 0 0
N4291 8.930 1.840 0 0 0
N48 8.990 1.560 0 0 0
N4147 10.000 1.360 0 0 0
N480 10.000 1.330 0 0 0
N3719 8.090 3.420 0 0 0
N772 7.710 4.520 0 0 0
N474 8.480 2.190 0 0 0
N2488 8.480 1.990 0 0 0
N1739 9.880 1.400 0 0 0
N3754 9.440 2.010 0 0 0
N2253 9.280 1.820 0 0 0
N2425 9.300 1.750 0 0 0
N4323 9.180 1.690 0 0 0
N3099 9.150 1.700 0 0 0
N1483 9.760 1.430 0 0 0
N2513 9.330 2.010 0 0 0
N1358 8.980 2.140 0 0 0
N2635 8.940 2.140 0 0 0
N2128 8.210 3.020 0 0 0
N2863 8.400 2.850 0 0 0
N1121 10.520 1.410 0 0 0
N3795 10.710 1.400 0 0 0
N3293 11.010 1.790 0 0 0
N382 10.990 1.230 0 0 0
N123 9.300 1.250 0 0 0
N794 8.760 2.690 0 0 0
N451 8.750 2.750 0 0 0
N3604 9.330 1.450 0 0 0
N584 9.170 1.410 0 0 0
N1440 9.760 1.530 0 0 0
N3285 10.030 1.220 0 0 0
N2464 6.820 3.670 0 0 0
N1581 9.340 1.280 0 0 0
N664 8.900 1.680 0 0 0
N916 6.380 4.990 0 0 0
N880 8.700 2.040 0 0 0
N213 8.590 2.170 0 0 0
N184 9.400 1.530 0 0 0
N2166 6.670 4.060 0 0 0
N1653 6.540 5.550 0 0 0
N47 9.130 1.640 0 0 0
N4361 9.080 1.500 0 0 0
N3464 9.390 1.770 0 0 0
N3086 9.210 1.670 0 0 0
N3783 9.160 1.600 0 0 0
N666 8.370 2.980 0 0 0
N105 8.410 2.580 0 0 0
N2818 9.000 2.250 0 0 0
N893 9.360 1.220 0 0 0
N2717 8.360 2.070 0 0 0
N2331 8.380 1.940 0 0 0
N1294 8.840 1.600 0 0 0
N4130 10.460 1.400 0 0 0
N533 8.860 2.490 0 0 0
N3673 9.180 1.730 0 0 0
N2687 9.140 1.540 0 0 0
N667 8.510 1.970 0 0 0
N466 8.520 1.880 0 0 0
N3103 9.420 1.740 0 0 0
N788 8.700 2.300 0 0 0
N1230 8.830 1.470 0 0 0
N150 8.810 1.540 0 0 0
N4071 10.230 1.720 0 0 0
N2153 8.560 3.170 0 0 0
N2351 9.030 1.610 0 0 0
N2548 8.920 1.610 0 0 0
N892 9.290 1.480 0 0 0
N846 9.310 1.380 0 0 0
N2121 10.750 1.190 0 0 0
N2504 10.780 1.360 0 0 0
N4201 9.910 1.890 0 0 0
N867 8.870 2.090 0 0 0
N185 10.130 1.370 0 0 0
N401 10.160 1.360 0 0 0
N3406 9.760 1.310 0 0 0
N743 9.340 1.340 0 0 0
N2405 8.500 1.890 0 0 0
N699 8.970 1.860 0 0 0
N3537 8.920 2.010 0 0 0
N2970 9.330 1.020 0 0 0
N2343 9.400 1.220 0 0 0
N1232 9.700 0.950 0 0 0
N84 9.020 3.210 0 0 0
N643 8.910 3.090 0 0 0
N2716 9.380 1.490 0 0 0
N4154 10.420 1.010 0 0 0
N1404 8.240 3.200 0 0 0
N2311 9.640 1.170 0 0 0
N4322 9.270 1.390 0 0 0
N2648 9.400 1.320 0 0 0
N1963 9.520 1.080 0 0 0
N1992 8.380 2.940 0 0 0
N1183 10.060 1.070 0 0 0
N1105 9.110 2.520 0 0 0
N2116 9.240 1.680 0 0 0
N4064 8.590 2.030 0 0 0
N2066 9.070 2.020 0 0 0
N2402 10.550 1.470 0 0 0
N527 8.760 1.890 0 0 0
N2227 9.200 1.410 0 0 0
N1436 9.010 2.660 0 0 0
N143 9.180 1.590 0 0 0
N3459 10.090 1.660 0 0 0
N1539 9.000 2.160 0 0 0
N214 8.990 1.690 0 0 0
N1068 9.070 1.460 0 0 0
N1291 9.380 1.950 0 0 0
S28 8.840 1.591 0 0 0
N1843 8.820 1.650 0 0 0
N4193 8.040 3.560 0 0 0
N312 9.310 1.380 0 0 0
N3851 9.230 1.380 0 0 0
N557 9.170 1.550 0 0 0
N4317 9.030 2.270 0 0 0
N13 10.440 1.000 0 0 0
N1750 9.560 1.430 0 0 0
N4100 10.530 1.180 0 0 0
N317 9.200 1.720 0 0 0
N2175 9.300 1.160 0 0 0
N877 8.270 2.510 0 0 0
N3433 8.270 2.720 0 0 0
N1136 9.200 1.250 0 0 0
N1142 9.500 2.040 0 0 0
N3227 9.540 1.920 0 0 0
N668 8.490 3.240 0 0 0
N4307 8.470 3.380 0 0 0
N3816 9.200 1.430 0 0 0
N2686 9.230 2.600 0 0 0
N4079 9.200 1.700 0 0 0
N3368 9.840 2.460 0 0 0
N2489 10.130 1.630 0 0 0
N3727 10.130 1.500 0 0 0
N2676 9.110 1.350 0 0 0
N616 9.350 1.870 0 0 0
N708 9.200 1.630 0 0 0
N1785 9.180 2.050 0 0 0
N1061 9.080 1.730 0 0 0
N3979 9.210 1.420 0 0 0
N2528 9.200 2.990 0 0 0
N3044 8.720 2.550 0 0 0
N935 9.000 2.010 0 0 0
N2665 10.140 0.610 0 0 0
N676 10.200 0.550 0 0 0
N1262 9.200 1.570 0 0 0
N943 9.050 2.310 0 0 0
N344 9.030 2.030 0 0 0
N175 9.730 1.840 0 0 0
N3480 9.010 2.400 0 0 0
N2813 9.240 1.490 0 0 0
N2699 9.270 1.530 0 0 0
N3745 9.500 1.900 0 0 0
N2057 9.490 1.840 0 0 0
N787 9.300 1.240 0 0 0
N1810 8.390 2.320 0 0 0
N723 8.490 2.250 0 0 0
N2907 9.130 1.820 0 0 0
N318 9.110 1.870 0 0 0
N1812 10.080 1.050 0 0 0
N2658 10.470 1.430 0 0 0
N3423 10.520 1.480 0 0 0
N3870 10.400 1.030 0 0 0
N1244 8.580 2.620 0 0 0
N1868 9.100 1.400 0 0 0
N2320 9.070 1.780 0 0 0
N881 9.170 1.680 0 0 0
N910 9.410 1.230 0 0 0
N1863 9.420 1.110 0 0 0
N2960 9.730 1.480 0 0 0
N4066 9.310 2.840 0 0 0
N1638 9.370 2.140 0 0 0
N1969 9.400 1.980 0 0 0
N1357 9.400 1.270 0 0 0
N2237 8.230 2.480 0 0 0
N2774 8.290 2.320 0 0 0
N46 8.980 1.700 0 0 0
N3278 8.880 1.770 0 0 0
N1636 9.190 1.480 0 0 0
N1076 9.150 1.410 0 0 0
N1425 10.360 1.450 0 0 0
N872 10.300 1.530 0 0 0
N2949 9.030 1.570 0 0 0
N462 9.220 1.850 0 0 0
N3933 9.210 2.100 0 0 0
N3164 9.080 1.450 0 0 0
N2335 9.230 1.590 0 0 0
N2458 9.270 1.490 0 0 0
N1088 9.750 1.530 0 0 0
N2471 8.730 2.090 0 0 0
N3804 8.090 3.770 0 0 0
N3339 8.940 1.900 0 0 0
N1100 9.250 1.480 0 0 0
N3418 9.700 1.220 0 0 0
N4233 9.630 1.290 0 0 0
N2645 7.420 3.360 0 0 0
N661 8.810 2.450 0 0 0
N3501 9.520 1.040 0 0 0
N4085 9.460 1.050 0 0 0
N367 9.020 1.360 0 0 0
N692 8.990 1.440 0 0 0
N940 9.150 1.320 0 0 0
N4179 9.080 1.380 0 0 0
N4218 9.310 1.070 0 0 0
N562 9.000 2.720 0 0 0
N725 8.840 2.400 0 0 0
N1178 8.220 2.510 0 0 0
N2490 9.590 1.420 0 0 0
N1873 9.310 1.630 0 0 0
N520 9.580 1.300 0 0 0
N3680 8.960 1.900 0 0 0
N1886 9.310 1.800 0 0 0
N2347 9.280 1.890 0 0 0
N3636 7.900 2.830 0 0 0
N930 10.880 1.140 0 0 0
N2589 9.850 1.170 0 0 0
N1899 9.900 1.360 0 0 0
N3532 8.980 1.700 0 0 0
N3961 9.120 1.430 0 0 0
N2063 8.720 1.770 0 0 0
N2258 10.380 1.370 0 0 0
N3153 9.520 2.220 0 0 0
N3270 8.890 2.130 0 0 0
N2742 9.270 1.710 0 0 0
N3463 9.330 1.780 0 0 0
N3857 9.790 1.710 0 0 0
N4206 9.780 1.710 0 0 0
N2067 8.560 1.940 0 0 0
N3198 9.200 1.340 0 0 0
N2846 8.900 2.230 0 0 0
N93 9.240 2.020 0 0 0
N3338 8.840 2.620 0 0 0
N2176 8.820 1.850 0 0 0
N3129 9.330 1.700 0 0 0
N1516 9.090 2.170 0 0 0
N2374 9.060 2.410 0 0 0
N1758 8.600 2.460 0 0 0
N0 9.420 1.830 0 0 0
N1994 9.250 2.520 0 0 0
N2124 9.280 2.460 0 0 0
N2312 8.730 1.830 0 0 0
N3657 9.200 2.080 0 0 0
N126 8.910 2.400 0 0 0
N124 8.860 2.410 0 0 0
N1629 9.090 1.720 0 0 0
N2337 10.560 1.130 0 0 0
N3226 10.260 1.320 0 0 0
N2051 8.400 3.200 0 0 0
N755 7.710 3.000 0 0 0
N2164 8.830 2.230 0 0 0
N4087 9.220 2.060 0 0 0
N162 8.540 2.810 0 0 0
N3184 10.040 0.700 0 0 0
N38 9.300 1.350 0 0 0
N2860 9.200 1.780 0 0 0
N4101 6.990 4.420 0 0 0
N3142 5.010 6.400 0 0 0
N2194 10.140 1.530 0 0 0
S30 10.260 1.641 0 0 0
N1371 9.160 2.280 0 0 0
N319 8.130 2.400 0 0 0
N1218 8.570 2.500 0 0 0
N1591 8.640 2.900 0 0 0
N2812 10.420 2.700 0 0 0
N3115 10.410 2.160 0 0 0
N2315 9.270 1.740 0 0 0
N254 9.350 1.650 0 0 0
N3050 8.990 1.880 0 0 0
N585 10.190 1.500 0 0 0
N988 10.120 1.700 0 0 0
N873 8.280 2.750 0 0 0
N3533 8.230 2.960 0 0 0
N1900 9.120 2.290 0 0 0
N3341 8.960 2.350 0 0 0
N3401 10.860 1.400 0 0 0
N4298 9.890 1.870 0 0 0
N257 9.830 1.930 0 0 0
N1391 10.010 1.410 0 0 0
N2079 9.690 1.920 0 0 0
N920 9.320 1.640 0 0 0
N3244 8.690 0.700 0 0 0
N106 8.670 0.700 0 0 0
N1005 9.340 1.500 0 0 0
N1385 8.980 1.930 0 0 0
N1452 9.010 1.580 0 0 0
N2421 9.030 1.400 0 0 0
N2985 9.130 1.750 0 0 0
N3134 9.280 1.610 0 0 0
N1537 8.640 2.270 0 0 0
N2874 9.370 1.660 0 0 0
N2143 9.360 1.250 0 0 0
N1543 6.130 4.650 0 0 0
N579 10.100 1.800 0 0 0
N425 8.200 3.990 0 0 0
N3674 8.190 3.980 0 0 0
N1279 9.100 3.330 0 0 0
N1228 9.140 1.640 0 0 0
N3207 9.300 1.180 0 0 0
N119 9.400 1.510 0 0 0
N3628 9.220 1.180 0 0 0
N1552 9.880 1.650 0 0 0
N1687 9.570 2.430 0 0 0
N2104 9.350 1.500 0 0 0
N3932 9.650 0.790 0 0 0
N2319 9.310 2.550 0 0 0
N3076 9.230 2.470 0 0 0
N2265 9.380 2.040 0 0 0
N411 9.370 2.140 0 0 0
N1791 9.590 2.040 0 0 0
N3413 9.210 1.690 0 0 0
N193 9.400 1.060 0 0 0
N1248 9.090 2.270 0 0 0
N3469 9.120 1.770 0 0 0
N1020 8.700 2.660 0 0 0
N4264 7.940 3.210 0 0 0
N1897 7.920 2.920 0 0 0
N3163 9.880 1.420 0 0 0
N1215 9.380 1.560 0 0 0
N3623 10.840 0.850 0 0 0
N1987 9.000 1.340 0 0 0
N984 8.870 1.440 0 0 0
N1235 9.160 1.280 0 0 0
N3159 9.680 1.450 0 0 0
N4032 10.310 1.150 0 0 0
N2268 5.840 5.190 0 0 0
N90 9.280 1.370 0 0 0
N3388 9.370 1.220 0 0 0
N3788 9.470 1.020 0 0 0
N127 9.390 1.300 0 0 0
N3452 8.660 2.440 0 0 0
N35 8.110 3.740 0 0 0
N2350 9.550 2.060 0 0 0
N3 9.700 1.600 0 0 0
N1895 7.900 3.180 0 0 0
N1605 7.960 3.500 0 0 0
N3003 9.030 1.470 0 0 0
N3776 9.060 1.450 0 0 0
N1997 9.090 1.760 0 0 0
N731 9.230 1.570 0 0 0
N1577 8.890 2.090 0 0 0
N1107 8.970 1.970 0 0 0
N1261 7.360 4.770 0 0 0
N3610 9.400 1.390 0 0 0
N605 9.170 2.170 0 0 0
N1643 9.160 2.310 0 0 0
N1369 9.540 1.230 0 0 0
N331 9.110 1.730 0 0 0
N999 9.880 1.000 0 0 0
N4310 10.080 0.800 0 0 0
N2997 9.320 2.030 0 0 0
N1690 9.420 1.920 0 0 0
N1708 9.260 1.470 0 0 0
N570 8.730 1.850 0 0 0
N971 8.770 1.810 0 0 0
N3124 9.230 1.750 0 0 0
N2575 6.460 4.500 0 0 0
N419 8.750 1.710 0 0 0
N2808 10.620 1.460 0 0 0
N2290 9.430 1.660 0 0 0
N1223 9.500 1.100 0 0 0
N2981 9.180 1.620 0 0 0
N1077 9.110 1.670 0 0 0
N1435 9.350 1.690 0 0 0
N1399 9.450 1.790 0 0 0
N3225 8.700 2.220 0 0 0
N1330 8.660 2.340 0 0 0
N4213 9.060 1.860 0 0 0
N3498 5.900 5.360 0 0 0
N3977 5.890 5.340 0 0 0
N383 9.280 1.630 0 0 0
N3766 9.450 1.090 0 0 0
N3555 9.000 1.910 0 0 0
N1829 9.080 1.620 0 0 0
N4067 9.090 2.550 0 0 0
N1737 10.090 1.500 0 0 0
N4314 9.300 1.240 0 0 0
N1677 8.910 2.060 0 0 0
N3468 8.420 2.800 0 0 0
N449 9.260 1.320 0 0 0
N1648 10.590 1.750 0 0 0
N4134 9.640 1.950 0 0 0
N3422 9.500 1.610 0 0 0
N2073 9.100 1.390 0 0 0
N3841 10.100 1.190 0 0 0
N2685 9.670 0.990 0 0 0
N59 10.090 1.490 0 0 0
N3186 10.280 1.150 0 0 0
N1795 8.720 2.540 0 0 0
N657 9.200 2.560 0 0 0
N3663 9.400 1.520 0 0 0
N2916 9.120 2.140 0 0 0
N244 9.180 2.760 0 0 0
N236 9.380 1.030 0 0 0
N3009 9.440 0.960 0 0 0
N212 9.140 2.600 0 0 0
N4161 10.010 0.990 0 0 0
N3380 8.550 2.700 0 0 0
N1536 9.700 0.880 0 0 0
N4068 9.420 2.550 0 0 0
N1562 10.820 1.400 0 0 0
S32 8.780 2.682 0 0 0
N1792 9.250 1.280 0 0 0
N3128 9.160 1.510 0 0 0
N1842 9.500 1.220 0 0 0
N1128 8.830 1.950 0 0 0
N1001 9.880 1.000 0 0 0
N3993 7.580 4.460 0 0 0
N4225 9.070 2.210 0 0 0
N801 8.450 3.400 0 0 0
N1715 8.430 2.790 0 0 0
N148 9.070 1.520 0 0 0
N1045 9.350 1.890 0 0 0
N3845 9.200 1.260 0 0 0
N4308 9.130 1.340 0 0 0
N2398 9.110 1.460 0 0 0
N437 9.100 1.460 0 0 0
N2958 8.430 2.840 0 0 0
N1030 9.050 1.830 0 0 0
N4300 9.740 1.260 0 0 0
N1277 10.250 1.180 0 0 0
N2322 10.300 1.130 0 0 0
N3980 8.580 2.180 0 0 0
N3686 8.960 1.800 0 0 0
N3479 10.290 1.120 0 0 0
N2401 9.200 1.530 0 0 0
S33 8.830 2.620 0 0 0
N3485 8.840 2.230 0 0 0
N3461 8.800 1.500 0 0 0
N2543 9.480 1.190 0 0 0
N2726 9.210 2.670 0 0 0
N429 9.110 2.560 0 0 0
N1266 10.490 1.060 0 0 0
N1642 8.780 1.830 0 0 0
N1210 9.130 1.450 0 0 0
N810 8.890 1.400 0 0 0
N3569 9.820 1.400 0 0 0
N3331 9.650 1.330 0 0 0
N3249 9.360 2.550 0 0 0
N263 9.260 2.270 0 0 0
N623 9.540 1.110 0 0 0
N4125 9.100 2.020 0 0 0
N475 9.140 2.200 0 0 0
N3393 9.240 1.130 0 0 0
N3995 9.240 1.190 0 0 0
N1120 9.300 1.900 0 0 0
N246 9.110 1.790 0 0 0
N3883 9.040 2.960 0 0 0
N3906 6.520 5.110 0 0 0
N3064 8.510 2.540 0 0 0
N3877 8.690 1.810 0 0 0
N2971 10.120 1.300 0 0 0
N1862 9.480 1.270 0 0 0
N2719 8.480 2.310 0 0 0
N1914 9.300 1.320 0 0 0
N207 10.030 1.120 0 0 0
N3890 8.530 2.100 0 0 0
N2737 8.490 2.650 0 0 0
N63 9.390 0.880 0 0 0
N3061 8.310 3.430 0 0 0
N2114 9.250 1.280 0 0 0
N406 9.210 1.730 0 0 0
N1640 9.140 1.700 0 0 0
N1495 9.550 1.030 0 0 0
N99 10.230 1.350 0 0 0
N896 10.440 1.150 0 0 0
N2510 9.000 2.110 0 0 0
N530 9.000 2.110 0 0 0
N273 9.000 1.460 0 0 0
N3095 9.020 1.530 0 0 0
N3378 9.200 1.590 0 0 0
N1006 9.200 1.590 0 0 0
N1056 9.150 1.330 0 0 0
N4328 9.270 1.630 0 0 0
N2911 9.100 1.700 0 0 0
N3220 9.500 1.950 0 0 0
N3462 7.890 2.850 0 0 0
N4287 8.840 1.910 0 0 0
N2611 10.040 1.170 0 0 0
N4025 8.860 2.820 0 0 0
N886 8.860 2.720 0 0 0
N1250 9.210 1.290 0 0 0
N3660 9.850 1.440 0 0 0
N3955 8.850 1.710 0 0 0
N4169 8.880 1.690 0 0 0
N3652 9.040 1.910 0 0 0
N4176 9.240 1.520 0 0 0
N1334 8.580 2.390 0 0 0
N3693 9.000 1.880 0 0 0
N4162 9.140 1.580 0 0 0
N1156 9.220 1.780 0 0 0
N3108 9.230 1.450 0 0 0
N1874 9.310 1.240 0 0 0
N1719 8.780 1.630 0 0 0
N3712 8.720 1.690 0 0 0
N224 6.670 4.210 0 0 0
N3972 9.700 1.870 0 0 0
N4226 9.170 1.710 0 0 0
N2218 9.090 2.510 0 0 0
N1434 8.470 2.150 0 0 0
N798 8.420 1.960 0 0 0
N720 9.030 1.430 0 0 0
N4280 8.940 2.280 0 0 0
N1298 8.830 2.280 0 0 0
N866 9.350 1.630 0 0 0
N1618 10.760 1.040 0 0 0
N1606 10.740 1.240 0 0 0
N60 9.110 1.710 0 0 0
N1181 9.030 2.910 0 0 0
N3364 8.880 2.440 0 0 0
N356 9.000 1.700 0 0 0
N16 8.920 1.790 0 0 0
N1403 9.080 1.740 0 0 0
N3858 8.660 1.720 0 0 0
N4027 8.670 2.100 0 0 0
N2534 9.260 1.810 0 0 0
N1029 9.260 1.600 0 0 0
N1469 8.330 3.670 0 0 0
N1419 9.900 0.930 0 0 0
N4210 9.990 1.240 0 0 0
N50 10.220 1.350 0 0 0
N3646 9.340 1.290 0 0 0
N343 10.090 1.980 0 0 0
N3861 10.210 1.020 0 0 0
N3058 9.240 1.870 0 0 0
N1775 8.700 1.910 0 0 0
N1057 9.800 1.450 0 0 0
N626 9.400 1.630 0 0 0
N975 8.680 2.510 0 0 0
N1072 9.380 1.920 0 0 0
N677 9.470 1.790 0 0 0
N946 10.350 1.130 0 0 0
N1326 9.650 1.650 0 0 0
N1948 8.960 2.040 0 0 0
N3290 8.250 3.210 0 0 0
N636 9.360 2.230 0 0 0
N4061 9.700 0.950 0 0 0
N22 7.840 2.860 0 0 0
N4228 7.790 2.860 0 0 0
N2044 9.470 1.530 0 0 0
N1472 9.010 1.820 0 0 0
N2497 9.310 2.140 0 0 0
N1634 9.030 2.590 0 0 0
N928 10.130 1.160 0 0 0
N2559 10.150 1.140 0 0 0
N1344 9.070 1.520 0 0 0
N3966 9.170 1.620 0 0 0
N277 9.490 1.490 0 0 0
N2865 9.490 1.480 0 0 0
N4211 8.340 3.240 0 0 0
N3778 9.680 0.890 0 0 0
N2075 9.760 0.790 0 0 0
N2851 8.880 1.590 0 0 0
N948 10.060 1.370 0 0 0
N3353 8.970 1.480 0 0 0
N461 8.790 2.050 0 0 0
N1074 9.260 1.590 0 0 0
N4346 9.300 2.570 0 0 0
N2842 9.570 1.450 0 0 0
N4214 9.680 1.210 0 0 0
N2406 9.060 1.980 0 0 0
N2672 9.540 1.450 0 0 0
N1189 9.350 2.090 0 0 0
N1996 9.240 1.910 0 0 0
N2697 9.420 1.580 0 0 0
N2434 9.330 1.350 0 0 0
N2466 9.800 1.940 0 0 0
N2103 9.290 1.090 0 0 0
N1457 8.270 3.160 0 0 0
N1566 9.500 1.520 0 0 0
N3866 9.630 1.450 0 0 0
N3080 9.200 2.320 0 0 0
N2674 9.060 1.770 0 0 0
N2424 9.250 1.380 0 0 0
N170 9.300 1.340 0 0 0
N72 9.230 1.190 0 0 0
N1 9.330 1.090 0 0 0
N3639 9.400 0.960 0 0 0
N1729 9.330 1.330 0 0 0
N168 9.090 1.910 0 0 0
N396 8.760 2.700 0 0 0
N1998 8.690 2.480 0 0 0
N1069 8.670 2.000 0 0 0
N1468 9.080 1.630 0 0 0
N2326 9.080 1.640 0 0 0
N4341 8.850 2.260 0 0 0
N1103 9.490 2.230 0 0 0
N2643 10.040 1.190 0 0 0
N3167 6.320 5.250 0 0 0
N3118 10.160 1.620 0 0 0
N500 9.300 1.350 0 0 0
N3276 9.210 1.440 0 0 0
N1241 9.300 1.580 0 0 0
N2480 9.600 1.320 0 0 0
N969 8.980 1.550 0 0 0
N2509 9.140 1.510 0 0 0
N2210 9.340 0.950 0 0 0
N3387 8.240 3.260 0 0 0
N912 10.170 1.420 0 0 0
N811 9.450 1.380 0 0 0
N688 9.600 2.030 0 0 0
N2220 9.540 1.170 0 0 0
N1327 8.280 3.440 0 0 0
N1689 8.990 1.730 0 0 0
N519 9.430 1.400 0 0 0
N3599 8.920 1.400 0 0 0
N3330 9.110 1.730 0 0 0
N1904 9.490 1.380 0 0 0
N1363 9.580 0.750 0 0 0
N3046 10.280 1.690 0 0 0
N978 10.430 1.180 0 0 0
N3265 8.900 2.110 0 0 0
S36 8.860 1.768 0 0 0
N2259 9.300 1.220 0 0 0
N2041 9.140 1.530 0 0 0
N1503 9.330 1.780 0 0 0
N3504 9.300 1.580 0 0 0
N771 9.870 1.800 0 0 0
N2870 9.820 1.880 0 0 0
N3063 8.740 2.840 0 0 0
N1162 8.960 1.770 0 0 0
N1966 10.210 1.260 0 0 0
N1374 10.260 1.250 0 0 0
N2773 9.580 2.040 0 0 0
N2957 8.550 3.680 0 0 0
N385 9.100 1.490 0 0 0
N3746 9.070 1.640 0 0 0
N3152 9.960 1.350 0 0 0
N1379 9.400 1.600 0 0 0
N1557 8.930 2.130 0 0 0
N2159 9.400 1.200 0 0 0
N3699 9.400 1.240 0 0 0
N3066 9.310 1.920 0 0 0
N2670 9.300 1.850 0 0 0
N1348 9.320 1.720 0 0 0
N1073 9.200 1.220 0 0 0
N202 9.220 1.710 0 0 0
N554 9.030 1.880 0 0 0
N648 9.710 1.390 0 0 0
N3121 9.200 1.370 0 0 0
N769 10.310 1.250 0 0 0
N1442 10.130 1.380 0 0 0
N2009 8.890 2.020 0 0 0
N2568 9.010 2.200 0 0 0
N582 8.400 2.120 0 0 0
N1004 9.170 1.480 0 0 0
N1315 9.220 1.820 0 0 0
N10 8.340 2.210 0 0 0
N3256 9.090 1.150 0 0 0
N2020 8.990 1.580 0 0 0
N1290 9.470 1.580 0 0 0
N775 8.850 1.830 0 0 0
N1803 9.400 1.220 0 0 0
N2966 8.910 1.910 0 0 0
N1567 8.740 2.020 0 0 0
N1079 9.080 2.380 0 0 0
N4166 8.610 2.300 0 0 0
N619 8.350 2.520 0 0 0
N1209 9.300 1.230 0 0 0
N3475 10.360 1.400 0 0 0
N2254 10.680 1.100 0 0 0
N3136 9.270 1.690 0 0 0
N1733 9.350 2.090 0 0 0
N9 9.300 1.230 0 0 0
N3565 9.040 2.470 0 0 0
N1388 10.520 1.360 0 0 0
N779 8.870 2.210 0 0 0
N1346 9.000 1.840 0 0 0
N375 8.850 2.010 0 0 0
N1859 9.200 2.230 0 0 0
N1065 9.210 1.650 0 0 0
N1960 8.750 2.200 0 0 0
N890 9.890 0.960 0 0 0
N850 9.390 1.250 0 0 0
N822 9.130 1.220 0 0 0
S37 8.910 1.550 0 0 0
N2113 9.630 1.430 0 0 0
N3635 8.770 1.750 0 0 0
N1824 8.700 1.790 0 0 0
N3573 9.510 1.020 0 0 0
N3682 9.030 1.850 0 0 0
N4340 9.040 1.840 0 0 0
N3084 9.260 1.300 0 0 0
N564 8.350 2.800 0 0 0
N2862 9.880 1.330 0 0 0
N1569 9.300 2.910 0 0 0
N1258 10.190 1.270 0 0 0
N235 9.230 2.100 0 0 0
N3939 9.020 2.180 0 0 0
N276 9.520 1.780 0 0 0
N1721 9.750 1.450 0 0 0
N1239 9.240 1.400 0 0 0
N2302 8.810 1.800 0 0 0
N1541 9.120 1.490 0 0 0
N1674 8.940 1.940 0 0 0
N3923 9.880 2.130 0 0 0
N3297 9.400 1.430 0 0 0
N3774 9.100 1.900 0 0 0
N4184 9.210 1.980 0 0 0
N2271 9.200 1.680 0 0 0
N3614 9.440 1.720 0 0 0
N992 9.520 1.810 0 0 0
N1589 8.860 2.970 0 0 0
N3391 9.430 1.910 0 0 0
N3536 9.150 2.360 0 0 0
N1035 9.300 1.750 0 0 0
N3813 9.090 2.450 0 0 0
N3082 9.150 2.060 0 0 0
N1370 10.380 1.510 0 0 0
N1840 8.810 1.670 0 0 0
N2952 8.790 2.230 0 0 0
N2336 9.490 1.670 0 0 0
N1196 8.880 2.770 0 0 0
N915 9.300 1.930 0 0 0
N390 6.620 5.170 0 0 0
N19 9.130 2.290 0 0 0
N4256 9.400 1.220 0 0 0
N2221 9.380 1.990 0 0 0
N2297 9.500 1.680 0 0 0
N4081 9.080 1.890 0 0 0
N1040 9.240 1.910 0 0 0
N242 10.790 1.060 0 0 0
N1479 9.170 1.750 0 0 0
N596 9.490 2.260 0 0 0
N2495 10.200 1.350 0 0 0
N3733 8.470 2.760 0 0 0
N843 9.030 1.240 0 0 0
N296 10.180 1.870 0 0 0
N2845 10.340 1.510 0 0 0
N1225 10.130 1.420 0 0 0
N113 8.740 2.620 0 0 0
N2944 8.740 2.220 0 0 0
N2230 9.620 1.790 0 0 0
N3448 10.010 1.390 0 0 0
N998 9.150 1.160 0 0 0
N563 8.380 3.110 0 0 0
N2599 8.380 3.110 0 0 0
N2357 8.900 2.090 0 0 0
N2579 7.120 4.420 0 0 0
N956 8.320 3.540 0 0 0
N1798 9.030 2.060 0 0 0
N980 9.170 1.440 0 0 0
N4365 9.830 1.580 0 0 0
N758 9.600 1.290 0 0 0
N2377 9.170 1.610 0 0 0
N3436 10.200 1.380 0 0 0
N3332 10.290 1.190 0 0 0
N3122 10.290 1.360 0 0 0
N3524 9.830 1.500 0 0 0
N1186 8.840 2.350 0 0 0
N2798 4.900 6.950 0 0 0
N3800 8.290 2.780 0 0 0
N129 8.270 3.670 0 0 0
N4094 8.840 3.900 0 0 0
N324 9.100 2.120 0 0 0
N2427 8.230 3.460 0 0 0
N308 10.600 1.350 0 0 0
N615 9.320 1.280 0 0 0
N3749 9.230 2.080 0 0 0
N1106 10.540 1.130 0 0 0
N1412 10.650 1.100 0 0 0
N2825 9.240 1.630 0 0 0
N3672 9.300 2.240 0 0 0
N1631 8.350 2.540 0 0 0
N1187 9.920 1.160 0 0 0
N3230 9.140 1.940 0 0 0
N1497 9.800 1.250 0 0 0
N82 9.850 1.300 0 0 0
N2462 9.500 0.980 0 0 0
N3416 8.970 1.600 0 0 0
N1774 9.020 2.220 0 0 0
N1977 9.020 1.750 0 0 0
N2364 8.990 2.000 0 0 0
N2788 9.350 1.470 0 0 0
N947 9.320 1.270 0 0 0
N814 9.300 1.240 0 0 0
N3895 9.420 1.660 0 0 0
N1845 9.090 1.930 0 0 0
N1920 9.100 1.910 0 0 0
N2847 9.050 1.780 0 0 0
N3289 9.300 1.950 0 0 0
N1876 8.270 2.680 0 0 0
N3644 9.140 1.490 0 0 0
N1229 8.420 2.850 0 0 0
N1814 9.310 2.340 0 0 0
N253 9.400 1.300 0 0 0
N1428 10.010 1.560 0 0 0
N1278 10.180 0.980 0 0 0
N2511 7.240 3.500 0 0 0
N862 8.410 2.360 0 0 0
N1947 9.110 2.770 0 0 0
N1763 9.050 2.670 0 0 0
N4284 10.300 1.230 0 0 0
N3382 10.250 1.260 0 0 0
N1860 9.500 2.280 0 0 0
N2772 9.950 2.230 0 0 0
N361 9.000 1.470 0 0 0
N469 9.200 1.420 0 0 0
N3893 9.200 1.680 0 0 0
N149 6.420 4.510 0 0 0
N117 9.470 1.950 0 0 0
N876 9.440 1.200 0 0 0
N4253 9.410 1.220 0 0 0
N3478 9.200 2.390 0 0 0
N2498 9.070 1.650 0 0 0
N1740 8.590 2.100 0 0 0
N1742 9.670 1.550 0 0 0
N1680 9.180 1.220 0 0 0
N3305 8.950 2.490 0 0 0
S41 9.220 1.578 0 0 0
N2092 8.820 2.060 0 0 0
N3089 8.440 2.350 0 0 0
S42 9.420 1.469 0 0 0
N2301 9.050 1.530 0 0 0
N2383 9.050 1.500 0 0 0
N1394 9.690 1.230 0 0 0
N1711 9.800 0.980 0 0 0
N2250 9.800 1.110 0 0 0
N4092 9.250 1.820 0 0 0
N739 9.250 1.920 0 0 0
N2549 9.450 1.650 0 0 0
N4181 8.840 2.350 0 0 0
N2855 9.750 1.130 0 0 0
N2097 9.230 2.460 0 0 0
N4039 9.520 1.510 0 0 0
N3333 9.560 0.740 0 0 0
N2463 9.020 1.670 0 0 0
N1626 9.010 1.660 0 0 0
N1869 9.200 2.320 0 0 0
N545 8.500 2.900 0 0 0
N2999 9.650 1.330 0 0 0
N2200 9.630 1.340 0 0 0
N2028 10.130 1.720 0 0 0
N2453 8.450 2.240 0 0 0
N2832 8.830 3.170 0 0 0
N3377 10.160 1.480 0 0 0
N1182 8.880 1.430 0 0 0
N216 9.200 1.480 0 0 0
N3302 9.110 1.550 0 0 0
N2033 9.710 1.420 0 0 0
N953 9.730 1.240 0 0 0
N88 8.770 1.790 0 0 0
N662 9.470 1.460 0 0 0
N1773 9.130 1.820 0 0 0
N3048 9.090 1.410 0 0 0
N1905 9.400 1.300 0 0 0
N2706 9.200 2.390 0 0 0
S45 8.650 2.240 0 0 0
N3283 9.340 1.540 0 0 0
N2636 9.590 2.000 0 0 0
N3432 6.670 4.260 0 0 0
N3934 7.370 3.280 0 0 0
N537 8.940 2.180 0 0 0
N3668 9.070 1.770 0 0 0
N1458 9.260 1.450 0 0 0
N369 9.300 2.770 0 0 0
N3915 9.680 0.890 0 0 0
N1586 9.880 1.900 0 0 0
N395 9.940 1.590 0 0 0
N2197 8.860 1.690 0 0 0
N4259 7.950 2.850 0 0 0
N3952 8.010 2.800 0 0 0
N1328 9.400 2.120 0 0 0
N2123 9.650 1.870 0 0 0
N2783 8.850 1.640 0 0 0
N3814 9.320 1.430 0 0 0
N1422 8.340 3.280 0 0 0
N3323 8.960 2.020 0 0 0
N4098 9.970 1.510 0 0 0
N695 9.250 1.480 0 0 0
N1822 9.210 1.660 0 0 0
N2089 9.190 1.700 0 0 0
N1179 9.330 1.640 0 0 0
N3074 9.040 1.620 0 0 0
N3450 9.120 1.800 0 0 0
N1534 9.870 1.430 0 0 0
N187 9.910 1.380 0 0 0
N1809 9.370 2.010 0 0 0
N3303 9.190 2.160 0 0 0
N1735 7.670 3.050 0 0 0
N2723 7.700 2.810 0 0 0
N934 9.830 1.570 0 0 0
N328 9.730 1.560 0 0 0
N272 8.880 1.860 0 0 0
N2574 8.790 2.090 0 0 0
N410 9.200 1.270 0 0 0
N3363 8.440 2.440 0 0 0
N420 9.260 0.890 0 0 0
N3060 9.280 1.330 0 0 0
N243 10.060 1.150 0 0 0
N2308 9.420 1.090 0 0 0
N1955 9.480 0.980 0 0 0
N2987 9.490 1.090 0 0 0
N2996 8.530 1.910 0 0 0
N37 9.060 1.870 0 0 0
N1264 9.020 1.810 0 0 0
N3820 9.060 1.520 0 0 0
N1090 9.060 1.610 0 0 0
N2106 7.880 2.700 0 0 0
N2213 8.640 2.240 0 0 0
N2459 9.370 1.850 0 0 0
N1937 8.210 2.580 0 0 0
N2068 8.510 2.080 0 0 0
N818 9.200 2.680 0 0 0
N3434 9.180 1.660 0 0 0
N767 8.940 1.960 0 0 0
N1755 9.110 1.780 0 0 0
N305 9.160 1.610 0 0 0
N4350 8.780 1.710 0 0 0
N220 10.250 1.640 0 0 0
N1321 9.720 1.000 0 0 0
N1341 9.940 1.390 0 0 0
N697 9.130 1.480 0 0 0
N2206 9.030 1.850 0 0 0
N3632 9.010 2.650 0 0 0
N2975 8.460 2.830 0 0 0
N2896 9.600 1.090 0 0 0
N3886 9.200 1.640 0 0 0
N3151 8.850 1.950 0 0 0
N3587 8.700 1.660 0 0 0
N4002 9.400 1.480 0 0 0
N121 10.070 1.260 0 0 0
N3405 10.020 1.300 0 0 0
N1485 8.880 1.800 0 0 0
N2371 8.810 2.070 0 0 0
N1972 8.640 1.650 0 0 0
N1936 8.750 2.050 0 0 0
N1830 9.580 1.230 0 0 0
N3236 9.190 1.300 0 0 0
N3373 9.130 2.050 0 0 0
N1082 8.930 1.680 0 0 0
N565 8.940 1.530 0 0 0
N3398 8.940 1.540 0 0 0
N1365 8.160 3.870 0 0 0
N2244 9.220 1.810 0 0 0
N2666 8.780 2.750 0 0 0
N3229 9.290 2.270 0 0 0
N634 9.200 1.150 0 0 0
N1416 9.400 1.120 0 0 0
N3633 9.350 1.760 0 0 0
N24 9.190 1.380 0 0 0
S46 9.310 1.863 0 0 0
N2349 10.190 0.990 0 0 0
N2441 9.950 1.310 0 0 0
S47 7.300 3.261 0 0 0
N2125 5.020 4.560 0 0 0
N2140 7.610 3.970 0 0 0
N990 9.510 1.920 0 0 0
N2718 9.310 1.140 0 0 0
N3708 9.170 1.430 0 0 0
N2388 9.400 2.140 0 0 0
N1531 9.020 1.700 0 0 0
N2640 9.000 1.710 0 0 0
N3616 8.430 2.800 0 0 0
N1896 10.410 1.160 0 0 0
N1111 9.420 0.980 0 0 0
N3542 9.380 0.960 0 0 0
N3166 9.440 2.130 0 0 0
N2394 9.090 1.690 0 0 0
N660 9.080 1.730 0 0 0
N2883 9.970 1.180 0 0 0
N2235 9.270 1.510 0 0 0
N830 5.530 5.400 0 0 0
N1590 8.850 1.800 0 0 0
N2476 9.480 1.840 0 0 0
N3571 9.160 1.660 0 0 0
N3946 10.960 1.190 0 0 0
N2967 9.110 1.260 0 0 0
N4093 9.400 1.400 0 0 0
N3141 9.580 1.370 0 0 0
N3675 9.300 1.740 0 0 0
N1364 9.030 2.310 0 0 0
N3903 9.370 1.520 0 0 0
N2173 8.830 2.510 0 0 0
N241 8.140 3.250 0 0 0
N3796 9.350 1.580 0 0 0
S49 8.840 1.651 0 0 0
N4309 8.910 2.000 0 0 0
N2238 9.700 1.310 0 0 0
N1159 9.600 1.500 0 0 0
N110 9.480 1.100 0 0 0
N4299 9.230 1.890 0 0 0
N275 10.490 1.600 0 0 0
N3335 10.470 1.590 0 0 0
N1135 9.200 2.120 0 0 0
N3173 10.400 1.050 0 0 0
N2980 9.480 1.950 0 0 0
N976 8.820 2.410 0 0 0
N258 10.790 1.090 0 0 0
N4303 10.070 0.750 0 0 0
N4047 9.200 1.540 0 0 0
N2132 10.150 1.380 0 0 0
N3194 9.130 1.490 0 0 0
N3495 9.040 1.610 0 0 0
N131 9.700 1.540 0 0 0
N3601 9.400 1.460 0 0 0
N807 8.510 2.010 0 0 0
N3753 9.190 2.150 0 0 0
N209 8.960 1.710 0 0 0
N690 8.810 2.190 0 0 0
N1462 9.650 1.650 0 0 0
N4334 9.090 2.070 0 0 0
N735 9.160 2.930 0 0 0
N2664 8.400 3.340 0 0 0
N658 9.540 1.460 0 0 0
N2261 9.200 1.480 0 0 0
N484 9.170 1.320 0 0 0
N1140 8.420 2.380 0 0 0
N3618 8.820 1.790 0 0 0
N2353 8.970 1.540 0 0 0
N2283 8.960 1.670 0 0 0
N3786 9.300 1.250 0 0 0
N3078 6.340 5.350 0 0 0
N2062 8.570 2.430 0 0 0
N597 9.110 1.480 0 0 0
N256 10.340 1.190 0 0 0
N485 10.340 1.170 0 0 0
N3036 9.180 1.340 0 0 0
N1973 9.190 2.000 0 0 0
N4096 9.400 1.150 0 0 0
N1075 9.140 1.560 0 0 0
N2512 8.980 1.580 0 0 0
N3896 10.120 0.820 0 0 0
N2551 8.050 3.930 0 0 0
N3697 8.870 2.130 0 0 0
S51 10.010 1.196 0 0 0
N791 8.340 3.290 0 0 0
N3491 9.770 0.850 0 0 0
N3771 8.360 3.480 0 0 0
N3606 8.780 1.910 0 0 0
N3641 8.800 1.990 0 0 0
N3859 9.310 1.700 0 0 0
N3824 9.460 1.140 0 0 0
N483 9.180 1.630 0 0 0
N1864 9.160 1.560 0 0 0
N2296 9.590 1.320 0 0 0
N4362 10.210 1.370 0 0 0
N1304 10.270 1.290 0 0 0
N3582 9.040 2.040 0 0 0
N680 9.130 1.820 0 0 0
N1573 9.450 1.230 0 0 0
N3279 9.450 1.190 0 0 0
N2384 8.930 1.540 0 0 0
N1146 9.090 2.180 0 0 0
N806 10.290 1.820 0 0 0
N595 10.650 1.620 0 0 0
N1505 9.030 2.700 0 0 0
N551 8.920 3.090 0 0 0
N3045 9.400 1.260 0 0 0
N4129 9.200 1.430 0 0 0
N1489 9.280 1.350 0 0 0
N2998 8.570 2.560 0 0 0
N3299 9.380 1.620 0 0 0
N3056 9.890 1.050 0 0 0
N297 8.490 0.700 0 0 0
N300 9.160 1.300 0 0 0
N734 8.510 2.210 0 0 0
N773 9.090 1.850 0 0 0
N2192 9.310 1.230 0 0 0
N761 9.770 1.150 0 0 0
N2912 9.120 2.480 0 0 0
N535 9.740 1.860 0 0 0
N1188 9.200 1.420 0 0 0
N4043 8.080 4.030 0 0 0
N2503 9.140 1.590 0 0 0
N3953 9.140 1.640 0 0 0
N1372 9.030 1.660 0 0 0
N2266 9.900 1.330 0 0 0
N2231 8.150 2.340 0 0 0
N3529 9.410 1.580 0 0 0
N4257 9.530 1.550 0 0 0
N1943 9.760 1.490 0 0 0
N247 9.350 2.080 0 0 0
N1603 10.070 1.750 0 0 0
N1923 8.950 2.880 0 0 0
N3625 9.350 1.680 0 0 0
N832 9.280 1.890 0 0 0
N165 9.140 1.350 0 0 0
N2843 9.200 2.020 0 0 0
N4318 8.910 2.300 0 0 0
N627 9.350 2.130 0 0 0
N1793 9.230 0.596 0 0 0
N233 10.960 1.250 0 0 0
N1828 8.890 1.540 0 0 0
N2318 10.010 1.420 0 0 0
N3383 9.370 1.980 0 0 0
N4268 9.490 1.640 0 0 0
N4148 8.980 1.760 0 0 0
N1819 9.110 1.630 0 0 0
N384 8.330 2.640 0 0 0
N696 9.290 1.350 0 0 0
N3937 10.440 2.110 0 0 0
N67 9.120 1.470 0 0 0
N3015 9.120 1.860 0 0 0
N3530 9.170 1.850 0 0 0
N3073 9.630 1.430 0 0 0
N792 9.070 2.340 0 0 0
N3107 9.340 2.140 0 0 0
S52 10.080 1.173 0 0 0
N1884 8.450 2.130 0 0 0
N3287 9.750 1.250 0 0 0
N754 8.540 2.060 0 0 0
N446 8.550 2.190 0 0 0
N804 9.510 1.340 0 0 0
N2834 9.300 1.330 0 0 0
N1978 9.320 1.220 0 0 0
N2953 9.300 1.720 0 0 0
N439 9.200 1.750 0 0 0
N2486 9.140 2.060 0 0 0
N1482 10.140 1.460 0 0 0
N189 9.730 1.240 0 0 0
N2005 9.270 2.490 0 0 0
N3956 8.850 4.110 0 0 0
N655 9.420 3.470 0 0 0
N3562 9.200 1.670 0 0 0
N2691 9.000 3.990 0 0 0
N555 9.910 2.050 0 0 0
N604 9.460 1.700 0 0 0
N34 10.000 0.600 0 0 0
N250 9.230 1.150 0 0 0
N1455 9.380 1.030 0 0 0
N200 9.150 2.130 0 0 0
N4354 9.060 1.320 0 0 0
N1471 9.730 1.220 0 0 0
N2693 9.460 1.880 0 0 0
N1949 9.340 1.480 0 0 0
N996 9.210 1.700 0 0 0
N1592 8.690 2.660 0 0 0
N1157 8.550 2.730 0 0 0
N1974 9.070 1.440 0 0 0
N4185 10.360 1.020 0 0 0
N2306 8.990 2.060 0 0 0
N2516 9.390 1.520 0 0 0
N268 7.760 3.030 0 0 0
N2576 8.750 2.000 0 0 0
N3867 8.810 1.750 0 0 0
N907 8.390 3.070 0 0 0
N2992 9.030 3.030 0 0 0
N3904 9.120 2.230 0 0 0
N2382 9.540 1.370 0 0 0
N2152 8.920 2.110 0 0 0
N1498 10.000 1.340 0 0 0
N3384 8.890 2.070 0 0 0
S54 9.700 2.057 0 0 0
N3101 9.700 2.000 0 0 0
N712 9.200 1.490 0 0 0
N1870 8.860 2.350 0 0 0
N3447 9.300 1.180 0 0 0
N1613 8.750 2.030 0 0 0
N3843 8.790 2.510 0 0 0
N479 9.200 2.130 0 0 0
N2733 8.930 1.740 0 0 0
N2021 8.970 1.660 0 0 0
N2151 8.470 2.450 0 0 0
N2366 8.630 1.830 0 0 0
N2941 9.380 1.400 0 0 0
N3954 9.200 1.060 0 0 0
N2796 9.300 1.170 0 0 0
N3199 9.580 1.280 0 0 0
N2661 10.270 1.470 0 0 0
N3374 9.470 1.430 0 0 0
N1821 9.830 1.510 0 0 0
N2934 9.820 1.600 0 0 0
N765 8.990 1.650 0 0 0
N2236 9.570 1.010 0 0 0
N3557 9.410 1.020 0 0 0
N1663 9.130 1.640 0 0 0
N4261 9.400 1.490 0 0 0
N639 9.220 1.340 0 0 0
N2882 9.080 1.840 0 0 0
N2806 8.880 1.910 0 0 0
N1799 9.170 1.320 0 0 0
N558 10.250 1.360 0 0 0
N440 9.060 1.370 0 0 0
N3160 9.320 1.510 0 0 0
N1686 9.090 1.610 0 0 0
N3425 9.050 1.580 0 0 0
N2558 8.940 1.760 0 0 0
N1496 8.920 2.230 0 0 0
N2328 8.570 2.790 0 0 0
N3007 9.360 1.540 0 0 0
N2968 8.710 2.640 0 0 0
N2562 9.420 1.190 0 0 0
N4140 9.290 1.400 0 0 0
N3899 9.730 1.220 0 0 0
N1975 9.350 1.260 0 0 0
N1616 8.900 2.570 0 0 0
N1160 8.680 2.620 0 0 0
N454 10.310 1.190 0 0 0
N3830 10.200 1.590 0 0 0
N3688 8.990 1.790 0 0 0
N3435 9.060 2.960 0 0 0
N4115 10.320 1.570 0 0 0
N2765 9.130 1.500 0 0 0
N4114 8.550 2.030 0 0 0
N3483 9.000 1.930 0 0 0
N320 9.400 1.520 0 0 0
N1732 9.340 1.050 0 0 0
N2937 10.590 1.530 0 0 0
N4288 9.200 2.700 0 0 0
N3460 8.770 1.700 0 0 0
N4333 9.280 1.440 0 0 0
N1659 9.200 1.320 0 0 0
N2284 9.140 1.480 0 0 0
N3737 9.010 1.620 0 0 0
N523 8.960 1.500 0 0 0
N1901 9.080 1.860 0 0 0
N55 9.300 1.020 0 0 0
N3622 9.400 1.620 0 0 0
N3797 9.000 1.980 0 0 0
N418 10.150 1.170 0 0 0
N721 10.210 1.150 0 0 0
N1941 9.100 1.730 0 0 0
N645 8.990 1.830 0 0 0
N2876 8.700 2.030 0 0 0
N1395 8.840 1.910 0 0 0
N679 8.920 2.370 0 0 0
N1712 8.010 2.780 0 0 0
N2423 10.290 1.530 0 0 0
N751 8.910 1.870 0 0 0
N221 9.080 1.650 0 0 0
N1306 9.900 0.950 0 0 0
N2596 9.950 1.220 0 0 0
N929 10.850 2.140 0 0 0
N3215 9.050 1.410 0 0 0
N66 10.030 1.660 0 0 0
N1601 9.200 2.550 0 0 0
N3242 10.250 1.230 0 0 0
N2909 9.710 1.040 0 0 0
N1474 9.450 1.590 0 0 0
N230 9.620 1.090 0 0 0
N3834 8.920 1.460 0 0 0
N858 8.640 3.220 0 0 0
N471 6.860 4.290 0 0 0
N4202 8.930 1.440 0 0 0
N267 10.660 1.190 0 0 0
N1303 9.810 1.540 0 0 0
N4273 8.960 1.780 0 0 0
N752 9.140 1.600 0 0 0
N1946 9.490 1.610 0 0 0
N2631 9.400 1.170 0 0 0
N2662 9.400 1.280 0 0 0
N963 9.200 1.350 0 0 0
N490 9.000 2.630 0 0 0
N2245 7.790 3.070 0 0 0
N1913 9.740 1.620 0 0 0
N553 10.440 1.120 0 0 0
N3837 9.060 1.350 0 0 0
N289 8.720 2.440 0 0 0
N2077 8.740 2.810 0 0 0
N2571 9.610 0.550 0 0 0
N2481 9.000 1.480 0 0 0
N2867 8.940 1.490 0 0 0
N336 9.150 2.140 0 0 0
N1575 9.230 2.040 0 0 0
N1945 8.240 3.680 0 0 0
N281 9.170 1.800 0 0 0
N2897 9.170 1.730 0 0 0
N417 9.590 1.250 0 0 0
N2346 8.250 3.270 0 0 0
N137 9.140 1.560 0 0 0
N2278 9.150 1.760 0 0 0
N132 9.280 1.410 0 0 0
N17 9.430 1.810 0 0 0
N1754 9.210 2.170 0 0 0
N510 9.130 2.200 0 0 0
N4034 9.050 1.300 0 0 0
S56 8.740 2.402 0 0 0
N2649 9.810 1.240 0 0 0
N1113 9.730 1.530 0 0 0
N3731 10.410 1.290 0 0 0
N3970 9.540 1.950 0 0 0
N3553 9.180 1.630 0 0 0
N231 9.420 1.410 0 0 0
N1767 10.450 1.270 0 0 0
N4232 10.010 1.330 0 0 0
N392 9.400 1.240 0 0 0
N903 9.610 1.470 0 0 0
N3417 9.400 1.040 0 0 0
N3350 9.020 2.020 0 0 0
N3752 9.070 2.150 0 0 0
N3201 9.300 2.420 0 0 0
N1971 9.130 1.440 0 0 0
N2204 9.250 1.840 0 0 0
N2750 9.240 2.460 0 0 0
N2668 9.330 1.270 0 0 0
N1995 8.770 1.660 0 0 0
N1565 9.190 1.670 0 0 0
N713 9.200 2.520 0 0 0
N2964 9.890 1.280 0 0 0
N310 10.100 1.360 0 0 0
N1430 9.090 1.350 0 0 0
N2215 9.130 1.320 0 0 0
N103 9.650 1.250 0 0 0
N3004 4.980 6.500 0 0 0
N1743 10.620 1.580 0 0 0
N2046 8.560 2.380 0 0 0
N464 9.200 2.830 0 0 0
N2523 9.250 1.930 0 0 0
N125 10.570 1.620 0 0 0
N1032 8.510 2.640 0 0 0
N3488 10.580 1.380 0 0 0
N945 9.300 1.580 0 0 0
N3596 10.210 1.580 0 0 0
N245 9.230 1.910 0 0 0
N304 9.250 0.596 0 0 0
N3517 9.200 2.320 0 0 0
N3336 9.200 1.830 0 0 0
N1847 7.990 2.770 0 0 0
N2330 9.040 1.300 0 0 0
N4159 9.640 0.920 0 0 0
N2795 9.100 1.580 0 0 0
N2429 8.790 1.900 0 0 0
N1877 5.540 5.450 0 0 0
N2102 9.110 1.560 0 0 0
N1892 9.200 1.040 0 0 0
N3691 8.870 3.080 0 0 0
N2906 8.960 1.890 0 0 0
N529 8.260 2.470 0 0 0
N1320 9.240 1.680 0 0 0
N1397 9.480 1.520 0 0 0
N4209 8.920 2.320 0 0 0
N3539 8.470 2.220 0 0 0
N2538 10.790 1.290 0 0 0
N1881 9.160 1.430 0 0 0
N2572 9.200 1.200 0 0 0
N3996 9.340 1.550 0 0 0
N3770 9.220 1.520 0 0 0
N2485 9.250 1.490 0 0 0
N607 9.320 2.250 0 0 0
N894 10.270 2.050 0 0 0
N3429 9.770 1.860 0 0 0
N3579 8.730 2.060 0 0 0
N3300 9.150 1.980 0 0 0
N403 9.200 1.550 0 0 0
N1617 9.020 1.890 0 0 0
N3598 8.470 3.360 0 0 0
N1443 9.010 2.570 0 0 0
N512 9.000 2.540 0 0 0
N1318 9.490 1.730 0 0 0
N3629 9.010 1.670 0 0 0
N1909 9.670 1.510 0 0 0
N1611 9.100 1.920 0 0 0
N3067 9.360 1.710 0 0 0
N2198 9.010 1.830 0 0 0
N2501 9.730 1.190 0 0 0
N2680 9.690 1.800 0 0 0
N1098 9.350 1.560 0 0 0
N2805 9.530 0.640 0 0 0
N3971 9.670 0.930 0 0 0
N3308 10.240 0.960 0 0 0
N2387 9.800 1.800 0 0 0
N76 9.400 0.940 0 0 0
N2905 9.100 1.490 0 0 0
N2651 9.670 0.930 0 0 0
N2994 9.450 1.170 0 0 0
N2309 9.630 1.150 0 0 0
N548 9.800 1.360 0 0 0
N346 9.800 1.410 0 0 0
N1131 8.650 3.480 0 0 0
N1583 8.620 2.930 0 0 0
N2040 9.670 0.930 0 0 0
N729 9.300 1.570 0 0 0
N3583 9.280 1.810 0 0 0
N223 9.260 2.030 0 0 0
S59 9.380 1.826 0 0 0
N793 9.610 1.810 0 0 0
N7 9.120 1.440 0 0 0
S60 9.340 1.672 0 0 0
N436 8.800 2.060 0 0 0
N2223 9.150 1.870 0 0 0
N3687 9.090 1.730 0 0 0
N1039 8.880 1.610 0 0 0
N684 9.130 1.970 0 0 0
N2803 9.210 1.510 0 0 0
N2433 9.150 1.710 0 0 0
N2011 9.200 1.160 0 0 0
N1042 9.230 1.520 0 0 0
N3497 9.480 1.270 0 0 0
N2681 9.090 2.010 0 0 0
N1782 9.180 1.860 0 0 0
N2252 9.380 1.700 0 0 0
N4153 9.700 0.950 0 0 0
N1771 9.510 1.500 0 0 0
N252 9.920 1.670 0 0 0
N423 9.160 1.650 0 0 0
N2756 9.070 2.340 0 0 0
N357 9.200 1.640 0 0 0
N2058 9.280 1.450 0 0 0
N4224 10.590 0.770 0 0 0
N1284 9.340 1.620 0 0 0
N43 9.280 1.650 0 0 0
N1551 10.200 0.500 0 0 0
N4046 8.560 2.320 0 0 0
N3803 9.830 1.490 0 0 0
N3235 9.030 1.690 0 0 0
N2023 9.000 1.700 0 0 0
N3069 9.280 1.350 0 0 0
N285 9.300 1.400 0 0 0
N1572 9.320 1.720 0 0 0
N1831 8.900 1.520 0 0 0
N799 10.780 1.280 0 0 0
N3549 8.970 1.970 0 0 0
N2627 8.740 1.860 0 0 0
N3443 8.730 2.130 0 0 0
N283 7.780 3.120 0 0 0
N147 9.600 1.120 0 0 0
N2317 9.270 2.090 0 0 0
N2275 9.540 1.270 0 0 0
N837 9.090 1.500 0 0 0
N2443 10.780 1.270 0 0 0
N2762 9.010 2.060 0 0 0
N3183 9.050 2.020 0 0 0
N1834 9.860 0.800 0 0 0
N152 9.810 0.810 0 0 0
N1688 8.950 2.370 0 0 0
N897 10.610 1.520 0 0 0
S62 10.010 0.974 0 0 0
N961 9.320 1.980 0 0 0
N1389 9.330 2.030 0 0 0
N3228 9.000 2.050 0 0 0
N3476 9.090 1.270 0 0 0
N2520 9.260 1.650 0 0 0
S63 8.910 1.884 0 0 0
S64 8.600 2.100 0 0 0
N3876 8.700 2.090 0 0 0
N1507 9.900 1.310 0 0 0
N2146 9.300 1.580 0 0 0
N456 9.200 1.180 0 0 0
N4042 9.660 1.250 0 0 0
N718 7.500 3.170 0 0 0
N169 9.500 1.570 0 0 0
N3833 8.840 1.730 0 0 0
N1872 9.500 1.140 0 0 0
N1907 9.400 1.900 0 0 0
N3471 10.400 1.110 0 0 0
N3656 9.200 1.690 0 0 0
N2094 8.980 1.740 0 0 0
N2348 10.480 2.590 0 0 0
N3725 8.950 1.460 0 0 0
N3245 9.240 1.550 0 0 0
N3394 9.180 1.600 0 0 0
N1957 8.540 2.840 0 0 0
N568 9.400 1.520 0 0 0
N3519 9.470 1.120 0 0 0
N1633 8.200 3.050 0 0 0
N1058 9.400 1.140 0 0 0
N1172 9.400 1.260 0 0 0
N3039 9.350 1.930 0 0 0
N4243 9.270 1.830 0 0 0
N1568 9.390 1.740 0 0 0
N2871 9.090 1.440 0 0 0
N1059 9.320 2.450 0 0 0
N1037 7.740 2.810 0 0 0
N3560 9.810 1.120 0 0 0
N2187 9.720 1.240 0 0 0
N1698 9.500 1.190 0 0 0
N3412 8.960 2.640 0 0 0
N4351 9.400 1.200 0 0 0
N2354 9.450 1.030 0 0 0
N3140 10.740 1.380 0 0 0
N3472 9.180 2.340 0 0 0
N335 9.210 0.490 0 0 0
N1944 8.930 1.980 0 0 0
N2209 8.960 2.340 0 0 0
N3531 9.970 1.710 0 0 0
N260 9.010 1.850 0 0 0
N1599 9.200 0.800 0 0 0
N2448 9.200 2.050 0 0 0
N1116 8.800 1.640 0 0 0
N62 10.680 0.930 0 0 0
N2779 9.150 2.150 0 0 0
N3441 9.230 2.280 0 0 0
N2090 8.890 1.910 0 0 0
N1850 10.200 1.280 0 0 0
N495 9.580 1.190 0 0 0
N2172 9.580 1.100 0 0 0
N1958 9.420 2.550 0 0 0
N1777 9.540 1.190 0 0 0
N4186 9.130 1.650 0 0 0
N2592 8.460 2.140 0 0 0
N3751 8.330 2.200 0 0 0
N1000 9.280 2.550 0 0 0
N1289 9.410 2.060 0 0 0
N2086 9.370 1.440 0 0 0
N3692 8.730 1.680 0 0 0
N2722 9.070 1.530 0 0 0
N2355 9.650 2.660 0 0 0
N1046 9.050 2.000 0 0 0
N3926 9.120 1.720 0 0 0
N1213 9.760 1.710 0 0 0
N3492 9.250 2.990 0 0 0
N29 10.610 1.430 0 0 0
N1558 10.720 1.310 0 0 0
N3540 8.160 2.600 0 0 0
N472 9.750 1.560 0 0 0
N2010 10.340 1.070 0 0 0
N1180 9.200 1.730 0 0 0
N2751 9.300 1.260 0 0 0
N813 8.910 1.630 0 0 0
N3810 9.400 1.180 0 0 0
S70 9.320 1.517 0 0 0
N311 9.590 1.420 0 0 0
S71 9.840 1.498 0 0 0
N1150 10.160 1.580 0 0 0
N1034 9.720 1.330 0 0 0
N3304 10.190 1.660 0 0 0
S73 9.600 1.953 0 0 0
N363 9.400 1.290 0 0 0
N3065 9.360 1.660 0 0 0
N1092 9.850 1.300 0 0 0
N194 9.220 1.460 0 0 0
N4033 9.770 1.750 0 0 0
N2293 9.070 1.750 0 0 0
N2018 9.080 1.700 0 0 0
N1574 11.150 1.030 0 0 0
N3172 9.400 0.980 0 0 0
N2898 10.790 1.040 0 0 0
N4237 9.030 1.600 0 0 0
N824 9.120 1.540 0 0 0
N1426 9.500 1.040 0 0 0
N3931 8.920 2.340 0 0 0
N1062 8.980 1.690 0 0 0
N1433 8.900 2.100 0 0 0
N637 10.060 1.990 0 0 0
N4266 9.380 1.100 0 0 0
N3397 8.380 2.360 0 0 0
N316 9.140 1.410 0 0 0
N4052 9.660 0.540 0 0 0
N698 9.430 1.790 0 0 0
N2118 8.890 1.570 0 0 0
N493 9.270 1.520 0 0 0
N1356 9.340 2.930 0 0 0
N1080 9.680 1.540 0 0 0
N362 9.210 2.220 0 0 0
N3792 9.510 1.190 0 0 0
N3613 10.030 1.810 0 0 0
N4006 8.730 1.880 0 0 0
N4123 9.310 1.130 0 0 0
N3420 8.900 2.980 0 0 0
N2162 8.990 0.730 0 0 0
N1849 10.200 1.210 0 0 0
N1808 10.220 1.150 0 0 0
N3473 9.030 1.330 0 0 0
N2321 8.920 3.350 0 0 0
N649 8.880 3.370 0 0 0
N3538 9.740 0.950 0 0 0
N2091 9.590 1.790 0 0 0
N3150 9.040 2.460 0 0 0
N4241 9.570 1.250 0 0 0
N378 10.450 0.990 0 0 0
N3809 9.520 1.770 0 0 0
N2219 8.640 2.110 0 0 0
N592 7.830 3.160 0 0 0
N3514 9.830 0.920 0 0 0
N572 9.550 1.810 0 0 0
N3868 9.300 1.740 0 0 0
N2901 9.540 1.170 0 0 0
N4104 9.130 1.600 0 0 0
N1695 9.610 1.270 0 0 0
N3146 9.200 1.510 0 0 0
N586 9.440 1.130 0 0 0
S77 8.910 1.540 0 0 0
N3298 8.930 1.800 0 0 0
N1015 9.270 2.120 0 0 0
N269 7.480 3.280 0 0 0
S78 8.090 3.905 0 0 0
N2169 9.200 1.240 0 0 0
N651 9.400 1.620 0 0 0
N2744 9.410 1.390 0 0 0
N3427 8.830 1.330 0 0 0
N922 10.570 1.100 0 0 0
N1373 9.380 2.010 0 0 0
N3117 9.390 1.130 0 0 0
N3309 9.210 1.360 0 0 0
N3855 10.200 1.170 0 0 0
N2450 10.040 1.310 0 0 0
N1705 9.020 3.250 0 0 0
N2272 9.520 1.280 0 0 0
N567 9.880 1.610 0 0 0
N4080 9.490 1.050 0 0 0
N4124 9.520 1.200 0 0 0
N1752 10.070 1.580 0 0 0
N3110 9.600 1.830 0 0 0
N3263 9.650 1.480 0 0 0
N1194 9.280 1.540 0 0 0
N2963 9.250 1.450 0 0 0
N3619 9.260 1.770 0 0 0
N4024 9.900 1.200 0 0 0
N1669 9.610 1.330 0 0 0
N1564 9.400 1.230 0 0 0
N831 9.130 2.030 0 0 0
N341 9.460 1.540 0 0 0
N542 9.300 1.400 0 0 0
N3985 9.400 1.220 0 0 0
N3506 9.030 1.690 0 0 0
N3880 9.200 1.520 0 0 0
N2475 9.760 1.520 0 0 0
N3092 10.680 1.490 0 0 0
N2601 9.370 1.750 0 0 0
N3174 9.610 2.290 0 0 0
N3823 9.400 2.190 0 0 0
N2412 9.430 1.350 0 0 0
N2554 8.590 2.200 0 0 0
N3543 9.320 2.120 0 0 0
N1728 9.280 1.080 0 0 0
N3912 9.930 0.570 0 0 0
N4248 8.570 1.840 0 0 0
N2839 8.990 1.920 0 0 0
N1520 9.430 1.510 0 0 0
N4013 7.580 3.000 0 0 0
S83 8.990 1.453 0 0 0
N2482 8.730 2.620 0 0 0
N871 9.560 2.340 0 0 0
S84 8.480 2.732 0 0 0
S85 9.260 1.534 0 0 0
N56 9.080 1.270 0 0 0
N1012 9.390 1.560 0 0 0
N3762 9.390 2.060 0 0 0
N4062 9.180 2.390 0 0 0
N4070 8.860 2.810 0 0 0
N4263 9.800 1.550 0 0 0
N3396 9.540 1.360 0 0 0
S86 8.560 1.979 0 0 0
N1490 10.540 2.150 0 0 0
N4051 8.940 1.730 0 0 0
N2381 9.560 1.670 0 0 0
N3838 9.030 1.600 0 0 0
N3755 9.550 1.020 0 0 0
N270 9.430 1.370 0 0 0
S87 9.400 1.288 0 0 0
N2141 9.300 1.210 0 0 0
N1259 9.100 2.220 0 0 0
N1246 9.790 1.260 0 0 0
N3763 9.450 2.530 0 0 0
N116 9.300 1.630 0 0 0
N2055 9.430 1.550 0 0 0
N3407 9.260 2.180 0 0 0
N1811 7.830 3.040 0 0 0
N3609 9.300 1.540 0 0 0
N1350 9.180 1.110 0 0 0
N4337 10.980 1.400 0 0 0
N2739 10.150 1.380 0 0 0
N2487 9.300 1.280 0 0 0
N1478 9.400 1.160 0 0 0
S91 9.220 1.207 0 0 0
N740 9.180 1.840 0 0 0
N2807 9.540 1.180 0 0 0
N3446 9.280 1.500 0 0 0
N2793 9.130 1.990 0 0 0
N1167 9.560 1.190 0 0 0
S92 8.980 1.547 0 0 0
S93 9.420 1.159 0 0 0
N885 9.170 2.460 0 0 0
N2973 8.950 1.620 0 0 0
N161 9.100 1.330 0 0 0
N2623 7.180 3.770 0 0 0
N2360 9.670 1.130 0 0 0
N2224 9.130 1.660 0 0 0
N3630 9.200 1.820 0 0 0
S95 10.440 1.518 0 0 0
N3773 9.300 2.280 0 0 0
N3930 9.530 0.680 0 0 0

[OUTFALLS]
;;Name Elev Type Stage Gated
N482 9.200 FIXED 9.600 YES
N1625 10.470 FREE NO
N1796 9.400 FIXED 9.600 YES
N2581 10.220 FREE NO
N1903 9.130 FREE NO
N4165 9.300 FIXED 9.600 YES
S43 10.060 FREE NO
N3041 9.200 FIXED 9.600 YES
N27 9.400 FIXED 9.600 YES
N1169 9.200 FIXED 9.600 YES
N3248 8.980 FIXED 9.600 YES
N4271 9.300 FIXED 9.600 YES
N2859 9.330 FREE NO
N75 9.250 FIXED 9.600 YES
N53 8.380 FIXED 9.600 YES
S55 8.590 FREE NO
N49 9.100 FIXED 9.600 YES
N3139 9.200 FIXED 9.600 YES
N3366 9.200 FIXED 9.600 YES
N4171 9.200 FIXED 9.600 YES
N650 9.200 FIXED 9.600 YES
N1043 9.200 FIXED 9.600 YES
N2655 9.400 FIXED 9.600 YES
N2811 9.400 FIXED 9.600 YES
S26 9.830 FREE NO
N1300 9.300 FIXED 9.600 YES
N1672 9.300 FIXED 9.600 YES
N1260 9.300 FIXED 9.600 YES
N3091 9.300 FIXED 9.600 YES
N4196 9.400 FIXED 9.600 YES
N1398 9.300 FIXED 9.600 YES
N2225 9.100 FIXED 9.600 YES
N1935 9.200 FIXED 9.600 YES
N1524 8.180 FREE NO
N800 8.400 FIXED 9.600 YES
N1429 9.270 FIXED 9.600 YES
N1275 9.200 FIXED 9.600 YES
N3989 9.100 FIXED 9.600 YES
N2390 9.200 FIXED 9.600 YES
N1149 8.700 FIXED 9.600 YES
N839 9.300 FIXED 9.600 YES
N2789 9.200 FIXED 9.600 YES
N2777 8.980 FIXED 9.600 YES
S61 7.320 FREE NO
N2468 9.150 FIXED 9.600 YES
N3523 9.300 FIXED 9.600 YES
N1487 9.300 FIXED 9.600 YES
N3326 9.080 FIXED 9.600 YES
N3059 9.020 FREE NO
N2432 9.300 FIXED 9.600 YES
N3780 9.200 FIXED 9.600 YES
N3631 9.200 FIXED 9.600 YES
N4059 9.190 FIXED 9.600 YES
N3268 9.200 FIXED 9.600 YES
N3354 9.300 FIXED 9.600 YES
N21 8.880 FIXED 9.600 YES
N2286 9.350 FIXED 9.600 YES
N3815 9.200 FIXED 9.600 YES
N1571 8.630 FIXED 9.600 YES
N3312 9.300 FIXED 9.600 YES
N2517 8.840 FIXED 9.600 YES
N513 9.300 FIXED 9.600 YES
N2725 9.300 FIXED 9.600 YES
N1486 9.080 FIXED 9.600 YES
N573 9.200 FIXED 9.600 YES
N4145 9.050 FIXED 9.600 YES
N2707 9.300 FIXED 9.600 YES
N1515 9.080 FIXED 9.600 YES
N1706 8.480 FIXED 9.600 YES
S82 5.900 FREE NO
N4222 9.400 FIXED 9.600 YES
N2632 9.300 FIXED 9.600 YES
N4023 9.400 FIXED 9.600 YES
N158 9.400 FIXED 9.600 YES
N2042 9.330 FREE NO
N2633 9.200 FIXED 9.600 YES
N232 9.900 FREE NO
S80 10.830 FREE NO
N1226 9.400 FIXED 9.600 YES
N528 9.200 FIXED 9.600 YES
N2607 9.400 FIXED 9.600 YES
N581 9.300 FIXED 9.600 YES
N3526 9.200 FIXED 9.600 YES
N1890 8.880 FIXED 9.600 YES
N3484 9.000 FIXED 9.600 YES
N1836 9.500 FIXED 9.600 YES
N812 9.300 FIXED 9.600 YES
N859 9.370 FIXED 9.600 YES
S23 8.670 FREE NO
N1927 9.400 FIXED 9.600 YES
S65 9.400 FREE NO
N2078 9.300 FIXED 9.600 YES
N389 9.200 FIXED 9.600 YES
N3318 9.400 FIXED 9.600 YES
N4203 9.080 FIXED 9.600 YES
N145 9.580 FREE NO
N3252 9.100 FIXED 9.600 YES
N1217 9.300 FIXED 9.600 YES
S90 9.980 FREE NO
N962 9.100 FIXED 9.600 YES
N2804 9.300 FIXED 9.600 YES
N3862 9.400 FIXED 9.600 YES
N2833 9.000 FIXED 9.600 YES
N3974 9.170 FREE NO
N4175 9.300 FIXED 9.600 YES
N1003 9.300 FIXED 9.600 YES
N1797 9.190 FIXED 9.600 YES
N1123 9.200 FIXED 9.600 YES
S94 9.260 FREE NO
N3634 9.300 FIXED 9.600 YES
N1718 9.300 FIXED 9.600 YES
N2895 9.350 FIXED 9.600 YES
S25 9.350 FREE NO
N1916 9.300 FIXED 9.600 YES
N622 9.400 FIXED 9.600 YES
S81 8.770 FREE NO
N2277 9.300 FIXED 9.600 YES
N964 8.930 FREE NO
N879 9.300 FIXED 9.600 YES
N2167 9.280 FIXED 9.600 YES
N3698 9.750 FREE NO
N3925 8.900 FIXED 9.600 YES
N4227 9.300 FIXED 9.600 YES
N1837 9.300 FIXED 9.600 YES
N4329 9.200 FIXED 9.600 YES
N350 9.260 FIXED 9.600 YES
N3518 9.300 FIXED 9.600 YES
N1027 9.200 FIXED 9.600 YES
N3218 9.200 FIXED 9.600 YES
N4021 9.100 FIXED 9.600 YES
S34 8.540 FREE NO
N2919 9.200 FIXED 9.600 YES
N4321 9.500 FIXED 9.600 YES
N2039 10.080 FREE NO
N393 9.210 FIXED 9.600 YES
S17 8.830 FREE NO
N2780 9.200 FIXED 9.600 YES
N2526 9.300 FIXED 9.600 YES
N198 9.400 FIXED 9.600 YES
N2188 9.100 FIXED 9.600 YES
N3522 8.900 FIXED 9.600 YES
N337 9.700 FIXED 9.600 YES
S75 8.650 FREE NO
N704 9.300 FIXED 9.600 YES
N3301 9.400 FIXED 9.600 YES
N2861 9.400 FIXED 9.600 YES
N4283 9.300 FIXED 9.600 YES
N4358 9.400 FIXED 9.600 YES
N624 9.300 FIXED 9.600 YES
N1313 9.200 FIXED 9.600 YES
N2556 9.200 FIXED 9.600 YES
N1078 9.100 FIXED 9.600 YES
N860 9.320 FIXED 9.600 YES
S66 10.040 FREE NO
N4335 9.200 FIXED 9.600 YES
N261 9.350 FIXED 9.600 YES
S35 10.720 FREE NO
N3223 9.200 FIXED 9.600 YES
N2048 9.400 FIXED 9.600 YES
N2768 9.400 FIXED 9.600 YES
N1366 9.240 FIXED 9.600 YES
N1347 9.350 FIXED 9.600 YES
N2473 8.180 FIXED 9.600 YES
N1815 9.200 FIXED 9.600 YES
N3200 8.480 FIXED 9.600 YES
N181 8.580 FIXED 9.600 YES
N1438 9.290 FREE NO
N489 8.980 FIXED 9.600 YES
N3324 9.300 FIXED 9.600 YES
N2791 9.300 FIXED 9.600 YES
N3390 9.300 FIXED 9.600 YES
N465 9.300 FREE NO
N186 9.620 FREE NO
N2715 9.300 FIXED 9.600 YES
S89 9.080 FREE NO
N2515 9.020 FREE NO
N3055 9.170 FREE NO
N1980 8.640 FREE NO
N1532 9.300 FIXED 9.600 YES
N741 9.200 FIXED 9.600 YES
S24 9.430 FREE NO
N1165 9.300 FIXED 9.600 YES
N1338 8.900 FIXED 9.600 YES
N1220 9.400 FIXED 9.600 YES
N2076 10.020 FREE NO
N652 9.300 FIXED 9.600 YES
N2184 8.980 FIXED 9.600 YES
N1288 9.280 FIXED 9.600 YES
S40 9.160 FREE NO
N3769 9.150 FIXED 9.600 YES
N2769 9.300 FIXED 9.600 YES
N3516 11.040 FREE NO
N3372 9.000 FIXED 9.600 YES
N4069 10.320 FREE NO
N982 9.300 FIXED 9.600 YES
N2856 9.400 FIXED 9.600 YES
N3292 9.200 FIXED 9.600 YES
S50 8.560 FREE NO
N4220 9.080 FIXED 9.600 YES
N3556 8.980 FIXED 9.600 YES
S44 10.720 FREE NO
N2465 9.590 FREE NO
N891 9.300 FIXED 9.600 YES
N1788 9.400 FIXED 9.600 YES
N2939 8.580 FREE NO
N476 8.970 FREE NO
N3849 9.270 FREE NO
N4138 9.200 FIXED 9.600 YES
N3558 9.300 FIXED 9.600 YES
N638 9.400 FIXED 9.600 YES
N237 9.200 FIXED 9.600 YES
N1381 9.300 FIXED 9.600 YES
S29 8.390 FREE NO
S69 9.280 FREE NO
N3342 9.300 FIXED 9.600 YES
N2604 9.400 FIXED 9.600 YES
N3662 8.180 FIXED 9.600 YES
N685 9.390 FREE NO
N2016 9.300 FIXED 9.600 YES
N628 8.610 FREE NO
N2544 9.300 FIXED 9.600 YES
N3982 9.960 FREE NO
N561 9.100 FIXED 9.600 YES
N3271 9.280 FIXED 9.600 YES
N3053 9.400 FIXED 9.600 YES
N3157 9.300 FIXED 9.600 YES
N4142 9.400 FIXED 9.600 YES
N87 9.300 FIXED 9.600 YES
N1354 9.400 FIXED 9.600 YES
N583 9.700 FREE NO
N468 9.400 FIXED 9.600 YES
N1902 8.900 FIXED 9.600 YES
N3869 8.520 FIXED 9.600 YES
N2378 9.300 FIXED 9.600 YES
N2410 8.880 FIXED 9.600 YES
N2644 9.300 FIXED 9.600 YES
N4026 9.700 FIXED 9.600 YES
S31 7.890 FREE NO
N1526 9.100 FIXED 9.600 YES
S68 9.480 FREE NO
N3607 9.120 FIXED 9.600 YES
N1525 9.350 FREE NO
N4313 9.250 FIXED 9.600 YES
N1295 9.200 FIXED 9.600 YES
N1378 9.300 FIXED 9.600 YES
N1467 8.900 FIXED 9.600 YES
N4132 9.200 FIXED 9.600 YES
N428 9.200 FIXED 9.600 YES
N913 9.300 FIXED 9.600 YES
N4017 9.200 FIXED 9.600 YES
N178 8.050 FIXED 9.600 YES
N2753 9.500 FIXED 9.600 YES
N3351 9.300 FIXED 9.600 YES
S39 9.760 FREE NO
N1185 9.300 FIXED 9.600 YES
S57 8.540 FREE NO
N1576 9.200 FIXED 9.600 YES
N3037 10.350 FREE NO
N315 9.100 FIXED 9.600 YES
N1556 9.700 FIXED 9.600 YES
N2456 9.050 FIXED 9.600 YES
N139 9.400 FIXED 9.600 YES
N41 9.200 FIXED 9.600 YES
N1990 10.550 FREE NO
S38 9.300 FREE NO
S48 10.920 FREE NO
N875 9.400 FIXED 9.600 YES
N3019 9.400 FIXED 9.600 YES
N3047 9.300 FIXED 9.600 YES
N3602 9.200 FIXED 9.600 YES
N2332 9.300 FIXED 9.600 YES
N1685 9.030 FIXED 9.600 YES
N294 9.300 FIXED 9.600 YES
S79 9.440 FREE NO
N4295 9.400 FIXED 9.600 YES
N2546 9.300 FIXED 9.600 YES
N107 9.500 FIXED 9.600 YES
S72 10.100 FREE NO
N1287 9.300 FIXED 9.600 YES
N2935 9.200 FIXED 9.600 YES
S67 9.000 FREE NO
N1203 9.300 FIXED 9.600 YES
N2917 9.300 FIXED 9.600 YES
N908 9.030 FIXED 9.600 YES
S88 10.800 FREE NO
S14 8.980 FREE NO
N612 8.700 FIXED 9.600 YES
N4326 9.300 FIXED 9.600 YES
N4152 9.870 FREE NO
N2891 9.010 FIXED 9.600 YES
N1832 9.400 FIXED 9.600 YES
S74 10.150 FREE NO
N1540 9.400 FIXED 9.600 YES
N3123 9.050 FIXED 9.600 YES
N73 9.200 FIXED 9.600 YES
N1237 9.300 FIXED 9.600 YES
N4296 8.080 FIXED 9.600 YES
N2201 9.200 FIXED 9.600 YES
N340 9.400 FIXED 9.600 YES
N2470 8.980 FREE NO
S0 9.110 FREE NO
N3175 9.400 FIXED 9.600 YES
N2323 9.430 FREE NO
N3328 9.660 FIXED 9.600 YES
N190 9.200 FREE NO
N4018 9.300 FIXED 9.600 YES
N501 8.990 FREE NO
S58 10.750 FREE NO
N3872 9.300 FIXED 9.600 YES
N3419 9.400 FIXED 9.600 YES
S76 9.120 FREE NO
N1293 9.200 FREE NO
S53 9.360 FREE NO
N4010 9.100 FIXED 9.600 YES
N3986 9.200 FIXED 9.600 YES
N166 9.200 FIXED 9.600 YES
N2313 9.400 FIXED 9.600 YES
N94 9.100 FIXED 9.600 YES
N4107 10.410 FREE NO
N979 9.450 FIXED 9.600 YES
N3400 9.300 FIXED 9.600 YES
N2117 8.950 FIXED 9.600 YES
O_N1979 9.150 FREE NO
O_N2255 8.700 FREE NO
O_N3550 9.980 FREE NO
O_S1 9.340 FREE NO
O_N1783 9.110 FIXED 9.600 YES
O_S2 8.870 FREE NO
O_S3 9.680 FREE NO
O_N2530 10.000 FREE NO
O_N972 8.840 FREE NO
O_N4367 9.050 FIXED 9.600 YES
O_S4 8.900 FREE NO
O_N3898 8.160 FREE NO
O_N3185 6.450 FREE NO
O_S5 9.140 FREE NO
O_N4305 9.290 FREE NO
O_S6 9.200 FREE NO
O_S7 10.260 FREE NO
O_S8 9.510 FREE NO
O_N3113 9.010 FIXED 9.600 YES
O_N2282 9.580 FREE NO
O_N4331 7.690 FREE NO
O_S9 8.290 FREE NO
O_N309 7.890 FREE NO
O_N3029 9.780 FREE NO
O_S10 10.490 FREE NO
O_N863 6.920 FREE NO
O_N2085 8.570 FREE NO
O_N701 9.000 FIXED 9.600 YES
O_N1722 9.720 FREE NO
O_N2634 9.090 FIXED 9.600 YES
O_N549 9.120 FREE NO
O_S11 9.880 FREE NO
O_N2745 9.630 FREE NO
O_S12 9.750 FREE NO
O_S13 7.980 FREE NO
O_N3842 8.840 FREE NO
O_N647 9.590 FREE NO
O_N3135 8.910 FREE NO
O_N3734 9.140 FREE NO
O_N2877 9.100 FREE NO
O_N1464 8.670 FREE NO
O_S15 9.740 FREE NO
O_N373 8.660 FREE NO
O_S18 10.020 FREE NO
O_N3677 10.950 FREE NO
O_N853 9.350 FIXED 9.600 YES
O_N431 4.910 FREE NO
O_S19 9.950 FREE NO
O_N2567 8.390 FREE NO
O_N1376 9.260 FIXED 9.600 YES
O_N3149 9.180 FIXED 9.600 YES
O_N3684 8.990 FREE NO
O_N1657 9.180 FREE NO
O_S20 8.410 FREE NO
O_N3717 9.010 FREE NO
O_S21 8.580 FREE NO
O_N4012 10.370 FREE NO
O_N2766 8.490 FREE NO
O_S22 8.760 FREE NO
O_N2678 9.700 FREE NO
O_S27 8.830 FREE NO
O_N2700 8.840 FREE NO
O_N4183 8.550 FREE NO
O_N2425 9.250 FIXED 9.600 YES
O_N1653 6.490 FREE NO
O_S28 8.790 FREE NO
O_N1810 8.340 FREE NO
O_N1868 9.050 FIXED 9.600 YES
O_N3153 9.470 FREE NO
O_S30 10.210 FREE NO
O_N3932 9.600 FIXED 9.600 YES
O_N3076 9.180 FREE NO
O_N1020 8.650 FIXED 9.600 YES
O_N1235 9.110 FREE NO
O_S32 8.730 FREE NO
O_S33 8.780 FREE NO
O_N3485 8.790 FREE NO
O_N3095 8.970 FIXED 9.600 YES
O_N3378 9.150 FREE NO
O_N2911 9.050 FREE NO
O_S36 8.810 FREE NO
O_N2159 9.350 FIXED 9.600 YES
O_N554 8.980 FREE NO
O_N779 8.820 FREE NO
O_S37 8.860 FREE NO
O_N4340 8.990 FIXED 9.600 YES
O_N4081 9.030 FIXED 9.600 YES
O_N253 9.350 FIXED 9.600 YES
O_S41 9.170 FREE NO
O_S42 9.370 FREE NO
O_N4181 8.790 FREE NO
O_N2832 8.780 FREE NO
O_S45 8.600 FREE NO
O_N1755 9.060 FREE NO
O_N565 8.890 FIXED 9.600 YES
O_S46 9.260 FREE NO
O_S47 7.250 FREE NO
O_N2125 4.970 FREE NO
O_N990 9.460 FREE NO
O_S49 8.790 FREE NO
O_N4334 9.040 FREE NO
O_S51 9.960 FREE NO
O_N3606 8.730 FREE NO
O_N3824 9.410 FREE NO
O_N2231 8.100 FREE NO
O_N1793 9.180 FIXED 9.600 YES
O_S52 10.030 FREE NO
O_N446 8.500 FIXED 9.600 YES
O_N3956 8.800 FREE NO
O_N3384 8.840 FIXED 9.600 YES
O_S54 9.650 FREE NO
O_N2284 9.090 FREE NO
O_N1395 8.790 FREE NO
O_N2631 9.350 FIXED 9.600 YES
O_S56 8.690 FREE NO
O_N304 9.200 FIXED 9.600 YES
O_N3579 8.680 FREE NO
O_N3971 9.620 FIXED 9.600 YES
O_N2651 9.620 FIXED 9.600 YES
O_N2994 9.400 FREE NO
O_N2040 9.620 FIXED 9.600 YES
O_S59 9.330 FREE NO
O_S60 9.290 FREE NO
O_N3183 9.000 FIXED 9.600 YES
O_S62 9.960 FREE NO
O_N3228 8.950 FIXED 9.600 YES
O_S63 8.860 FREE NO
O_S64 8.550 FREE NO
O_N1058 9.350 FIXED 9.600 YES
O_N335 9.160 FIXED 9.600 YES
O_N3751 8.280 FREE NO
O_S70 9.270 FREE NO
O_S71 9.790 FREE NO
O_S73 9.550 FREE NO
O_N2018 9.030 FIXED 9.600 YES
O_N1433 8.850 FIXED 9.600 YES
O_N3420 8.850 FREE NO
O_N2162 8.940 FIXED 9.600 YES
O_N649 8.830 FIXED 9.600 YES
O_S77 8.860 FREE NO
O_N3298 8.880 FREE NO
O_S78 8.040 FREE NO
O_N2169 9.150 FIXED 9.600 YES
O_N3912 9.880 FIXED 9.600 YES
O_S83 8.940 FREE NO
O_S84 8.430 FREE NO
O_S85 9.210 FREE NO
O_S86 8.510 FREE NO
O_S87 9.350 FREE NO
O_S91 9.170 FREE NO
O_S92 8.930 FREE NO
O_S93 9.370 FREE NO
O_N161 9.050 FIXED 9.600 YES
O_N2360 9.620 FIXED 9.600 YES
O_S95 10.390 FREE NO

[CONDUITS]
;;Name From To Length Rough InOff OutOff InitFlow MaxFlow
P0 N1545 N1778 17.94 0.0130 0.020 0.010 0 0
P1 N3267 N1979 2.99 0.0100 1.243 0.000 0 0
P2 N1221 N937 17.05 0.0100 0.230 0.000 0 0
P3 N1542 N6 19.19 0.0130 0.000 0.000 0 0
P4 N2120 N599 33.57 0.0100 0.010 0.820 0 0
P5 N3250 N1880 8.82 0.0100 0.000 0.200 0 0
P6 N3935 N1666 1.36 0.0100 0.000 0.000 0 0
P7 N2570 N1918 27.75 0.0130 0.000 0.000 0 0
P8 N669 N2821 16.11 0.0100 0.000 0.000 0 0
P9 N2732 N450 57.07 0.0100 0.000 3.070 0 0
P10 N905 N163 19.81 0.0100 0.000 0.000 0 0
P11 N4149 N1749 50.48 0.0130 0.000 0.070 0 0
P12 N3033 N1041 15.18 0.0100 0.000 0.000 0 0
P13 N3544 N3188 23.83 0.0100 0.000 0.000 0 0
P14 N3202 S0 56.14 0.0100 0.000 0.000 0 0
P15 N3024 N1466 21.05 0.0100 0.010 0.010 0 0
P16 N4144 N2081 9.46 0.0100 0.000 0.400 0 0
P17 N540 N3075 16.27 0.0130 0.020 0.060 0 0
P18 N3467 N151 13.19 0.0130 0.000 0.000 0 0
P19 N3789 N3941 19.26 0.0130 0.000 0.000 0 0
P20 N4172 N2255 47.89 0.0130 0.000 0.140 0 0
P21 N1047 N986 40.31 0.0100 0.010 0.140 0 0
P22 N1693 N656 25.78 0.0100 0.000 0.000 0 0
P23 N1959 N3458 14.00 0.0130 0.000 0.000 0 0
P24 N1066 N1700 17.59 0.0100 0.000 0.000 0 0
P25 N1852 N3442 41.81 0.0130 0.000 0.040 0 0
P26 N3621 N3900 16.70 0.0130 0.000 0.010 0 0
P27 N1317 N3281 13.50 0.0120 0.020 0.040 0 0
P28 N188 N2866 14.17 0.0100 0.000 0.450 0 0
P29 N847 N3550 11.57 0.0100 0.150 0.000 0 0
P30 N2814 N3157 2.33 0.0100 0.000 0.000 0 0
P31 N2884 N3998 20.27 0.0120 0.010 0.020 0 0
P32 N1627 N348 7.20 0.0120 0.180 0.840 0 0
P33 N1939 N3547 34.20 0.0130 0.050 0.000 0 0
P34 N2956 N2472 13.48 0.0100 0.000 2.370 0 0
P35 N3653 N1216 23.84 0.0130 0.090 0.000 0 0
P36 S1 N2195 24.81 0.0100 0.000 0.000 0 0
P37 N3168 N4038 14.70 0.0120 0.000 0.000 0 0
P38 N1787 N142 59.77 0.0130 1.490 0.000 0 0
P39 N2757 N2822 1.89 0.0100 0.000 0.000 0 0
P40 N3515 N1110 27.32 0.0130 0.000 0.020 0 0
P41 N4245 N122 30.64 0.0130 0.000 0.000 0 0
P42 N923 N325 18.21 0.0100 0.000 0.000 0 0
P43 N1783 N3593 5.65 0.0100 0.000 0.000 0 0
P44 N1439 N678 3.22 0.0100 0.000 0.000 0 0
P45 N3211 N3001 44.19 0.0130 0.020 0.000 0 0
P46 N4157 N370 33.71 0.0100 0.000 1.240 0 0
P47 N402 N4239 21.05 0.0100 0.000 0.000 0 0
P48 N4076 N432 9.56 0.0100 0.840 0.200 0 0
P49 N4339 N1451 11.64 0.0130 1.160 0.180 0 0
P50 N1671 N3217 20.00 0.0100 0.000 0.000 0 0
P51 N2933 N1312 19.80 0.0130 0.000 0.000 0 0
P52 S2 N1173 31.67 0.0120 0.000 0.000 0 0
P53 N1820 N3284 7.93 0.0130 0.000 0.000 0 0
P54 N1143 N714 7.34 0.0130 0.000 0.030 0 0
P55 N4158 N2294 25.31 0.0100 0.000 0.010 0 0
P56 N112 N1911 18.10 0.0130 0.000 0.000 0 0
P57 N933 N1696 18.68 0.0130 0.100 0.000 0 0
P58 N2828 N2148 10.43 0.0130 0.000 0.720 0 0
P59 N2638 N3648 8.71 0.0120 0.050 0.010 0 0
P60 N3487 N4356 45.59 0.0130 0.020 0.030 0 0
P61 N380 N2938 16.14 0.0130 0.000 2.210 0 0
P62 N3496 N4137 13.97 0.0130 0.000 0.000 0 0
P63 S3 N1268 23.89 0.0100 0.000 0.080 0 0
P64 N2292 N3017 4.84 0.0100 0.000 1.360 0 0
P65 N334 N883 13.46 0.0130 0.000 0.000 0 0
P66 N774 N3200 2.33 0.0120 0.000 0.000 0 0
P67 N715 N467 4.01 0.0100 0.000 0.670 0 0
P68 N3379 N3241 2.98 0.0100 0.000 0.000 0 0
P69 N182 N1826 20.65 0.0100 0.140 0.000 0 0
P70 N4221 N4364 15.83 0.0130 0.010 0.000 0 0
P71 N4215 N4016 14.49 0.0120 0.030 0.000 0 0
P72 N2647 N1427 21.07 0.0100 0.000 0.090 0 0
P73 N92 N1282 15.19 0.0100 0.000 0.000 0 0
P74 N3109 N1324 21.73 0.0130 0.000 0.050 0 0
P75 N1221 N2530 6.70 0.0100 0.000 0.020 0 0
P76 N4255 N2133 49.32 0.0130 0.000 0.000 0 0
P77 N1519 N2131 2.94 0.0100 0.210 0.000 0 0
P78 N1725 N764 9.01 0.0130 0.260 0.020 0 0
P79 N400 N201 4.52 0.0130 0.230 0.000 0 0
P80 N642 N4217 16.95 0.0130 0.000 0.010 0 0
P81 N3430 N1091 5.29 0.0100 0.000 2.620 0 0
P82 N1368 N3597 19.68 0.0100 0.000 0.000 0 0
P83 N3496 N1861 6.12 0.0130 0.600 0.740 0 0
P84 N884 N379 16.58 0.0130 0.010 0.000 0 0
P85 N4367 N972 7.73 0.0130 0.000 0.000 0 0
P86 N3669 N2598 28.18 0.0130 0.000 0.020 0 0
P87 N2307 N2614 14.92 0.0100 0.000 0.000 0 0
P88 N954 N3590 7.17 0.0100 0.000 0.640 0 0
P89 N931 N1463 18.22 0.0130 0.620 0.000 0 0
P90 N991 N2393 14.29 0.0100 0.000 0.000 0 0
P91 N3409 N770 50.40 0.0130 0.000 0.010 0 0
P92 N1108 N2959 29.06 0.0130 0.000 0.000 0 0
P93 N2257 N1597 6.16 0.0100 0.000 0.000 0 0
P94 N1768 N261 2.38 0.0100 0.000 0.000 0 0
P95 N1431 N4203 1.43 0.0130 0.000 0.000 0 0
P96 N2585 N2403 66.36 0.0130 0.000 0.000 0 0
P97 N2776 N1486 1.97 0.0130 0.000 0.000 0 0
P98 N3856 N2725 2.79 0.0100 0.000 0.000 0 0
P99 N301 N1702 7.38 0.0100 0.000 0.390 0 0
P100 N3921 N3240 28.33 0.0100 0.000 0.000 0 0
P101 N4251 N20 66.85 0.0130 0.000 0.840 0 0
P102 N3260 N1802 20.52 0.0100 0.000 0.000 0 0
P103 N3576 N2835 6.37 0.0130 0.000 0.020 0 0
P104 N2708 N931 7.13 0.0130 1.860 0.020 0 0
P105 N2541 N1126 19.52 0.0100 0.000 0.000 0 0
P106 N282 N3631 2.28 0.0100 0.000 0.000 0 0
P107 N759 N1195 50.24 0.0130 0.000 0.060 0 0
P108 N3936 N968 3.99 0.0100 0.000 1.710 0 0
P109 N1222 N3453 29.63 0.0130 0.130 0.100 0 0
P110 N2099 N3505 21.61 0.0120 0.030 0.010 0 0
P111 N2669 N2617 22.40 0.0130 0.000 0.000 0 0
P112 N3180 N4112 5.09 0.0130 0.000 0.000 0 0
P113 N2629 N2397 10.96 0.0100 0.100 0.000 0 0
P114 N1353 N2138 22.90 0.0130 0.000 0.010 0 0
P115 N576 N2314 33.64 0.0120 0.010 0.000 0 0
P116 N2411 N609 3.04 0.0100 0.010 1.550 0 0
P117 N2171 N4004 23.53 0.0130 0.000 0.000 0 0
P118 S4 N2214 33.58 0.0130 0.000 0.000 0 0
P119 N3905 N4332 11.81 0.0130 0.000 0.000 0 0
P120 N2817 N3898 64.68 0.0100 0.040 0.910 0 0
P121 N2709 N2002 3.54 0.0120 0.050 2.420 0 0
P122 N566 N924 17.40 0.0100 0.000 0.000 0 0
P123 N3700 N2628 24.04 0.0130 0.000 0.000 0 0
P124 N397 N3185 22.03 0.0130 0.040 0.000 0 0
P125 N511 N3637 1.33 0.0120 0.000 3.840 0 0
P126 N1820 N2460 19.96 0.0130 0.000 0.000 0 0
P127 N3267 N1878 20.48 0.0120 0.000 0.000 0 0
P128 N2262 N2629 25.56 0.0100 0.000 0.100 0 0
P129 N360 N741 2.69 0.0130 0.000 0.000 0 0
P130 N2361 N1476 15.36 0.0100 0.000 0.000 0 0
P131 N3402 N1518 20.67 0.0130 0.020 0.050 0 0
P132 N3670 N499 16.67 0.0130 0.020 0.020 0 0
P133 N2533 N3864 19.39 0.0130 0.000 0.010 0 0
P134 N3948 N4163 19.32 0.0100 0.000 0.110 0 0
P135 N3281 N2380 20.60 0.0120 0.000 0.400 0 0
P136 N795 N3729 12.83 0.0100 0.000 0.240 0 0
P137 N3414 N3457 9.10 0.0100 0.000 0.020 0 0
P138 N1662 N1096 8.56 0.0130 0.000 0.000 0 0
P139 N516 N2566 15.12 0.0100 0.000 0.000 0 0
P140 N1968 N1386 15.22 0.0130 0.040 0.000 0 0
P141 N4121 N603 28.14 0.0130 0.080 0.000 0 0
P142 N2565 N3664 11.22 0.0100 0.000 0.000 0 0
P143 N653 N4084 16.40 0.0100 0.000 0.000 0 0
P144 N1549 N1833 37.88 0.0130 0.040 0.010 0 0
P145 N1353 N1387 9.60 0.0100 0.040 0.050 0 0
P146 N1912 N217 10.14 0.0130 0.000 0.150 0 0
P147 N1415 N1533 3.14 0.0130 0.020 0.000 0 0
P148 N3216 N4016 18.10 0.0100 0.000 0.310 0 0
P149 N404 N506 39.76 0.0100 0.000 0.240 0 0
P150 N3695 N1114 18.18 0.0100 0.000 0.810 0 0
P151 N313 N1883 6.55 0.0130 0.000 0.000 0 0
P152 N3884 N1615 25.90 0.0100 0.440 0.000 0 0
P153 N600 N630 9.52 0.0100 0.000 0.430 0 0
P154 N1521 N1867 15.53 0.0130 0.000 0.550 0 0
P155 N888 N2483 49.10 0.0130 0.000 0.000 0 0
P156 N1405 N3221 6.94 0.0100 0.000 0.370 0 0
P157 N1553 N3707 20.41 0.0120 0.030 0.300 0 0
P158 N1387 S5 20.73 0.0100 0.000 0.000 0 0
P159 N2107 N3311 16.09 0.0130 0.000 0.000 0 0
P160 N2564 N2932 31.84 0.0130 0.030 0.000 0 0
P161 N1247 N2746 39.69 0.0100 0.000 0.000 0 0
P162 N3319 N1254 15.05 0.0100 0.000 0.000 0 0
P163 N1224 N1109 7.87 0.0130 0.000 0.250 0 0
P164 N1805 N3047 2.42 0.0130 0.000 0.000 0 0
P165 N79 N4305 53.41 0.0100 0.000 0.000 0 0
P166 N914 N1815 2.45 0.0100 0.000 0.000 0 0
P167 N2735 N154 10.02 0.0130 0.000 0.000 0 0
P168 N157 N629 11.34 0.0100 0.000 0.020 0 0
P169 N2214 N2569 18.62 0.0130 0.010 0.000 0 0
P170 N2639 N1961 16.03 0.0130 0.020 0.000 0 0
P171 N3507 N279 16.53 0.0130 0.000 0.020 0 0
P172 N1091 N3185 44.24 0.0130 0.000 0.010 0 0
P173 N217 N1747 5.37 0.0100 0.000 0.030 0 0
P174 N14 N1448 23.39 0.0130 0.000 0.030 0 0
P175 N323 N3068 4.39 0.0100 0.370 0.000 0 0
P176 N3891 N3180 15.52 0.0130 0.080 0.710 0 0
P177 N2088 N413 3.60 0.0130 0.170 0.000 0 0
P178 N3642 N2900 15.10 0.0130 0.000 0.000 0 0
P179 N1155 N3626 22.13 0.0100 0.000 0.000 0 0
P180 N1476 N3088 18.41 0.0100 0.000 0.000 0 0
P181 N2928 N23 30.15 0.0130 0.000 0.000 0 0
P182 N1233 N2857 19.78 0.0100 0.000 0.000 0 0
P183 N1271 N3257 5.72 0.0130 0.000 0.680 0 0
P184 N598 N3001 23.92 0.0100 0.000 1.560 0 0
P185 N1127 N2959 7.70 0.0120 0.000 2.000 0 0
P186 S6 N1481 53.77 0.0130 0.000 0.000 0 0
P187 N641 N75 2.73 0.0100 0.000 0.000 0 0
P188 N2440 N3025 21.37 0.0100 0.000 1.150 0 0
P189 N1161 N3760 46.32 0.0130 0.000 0.000 0 0
P190 N2721 N933 22.87 0.0130 0.000 0.000 0 0
P191 N387 N2940 50.78 0.0120 0.020 0.000 0 0
P192 N919 N2761 21.21 0.0100 0.000 0.000 0 0
P193 N3322 N1242 17.05 0.0100 0.000 0.020 0 0
P194 N1024 N2419 38.61 0.0100 0.000 0.000 0 0
P195 N284 N1518 45.22 0.0110 0.090 0.000 0 0
P196 N1331 N1724 9.27 0.0100 0.000 0.000 0 0
P197 N2356 N4274 66.87 0.0130 0.000 0.000 0 0
P198 N3913 N2763 19.23 0.0130 0.000 0.020 0 0
P199 S7 N3195 42.06 0.0100 0.000 0.000 0 0
P200 N3802 N2249 10.27 0.0100 0.000 0.010 0 0
P201 N2684 N1028 28.58 0.0130 0.240 0.000 0 0
P202 N2778 N4290 16.39 0.0130 0.080 0.000 0 0
P203 N2903 N742 3.12 0.0120 0.000 0.020 0 0
P204 N3028 N195 13.39 0.0100 0.170 0.000 0 0
P205 S8 N4244 39.21 0.0100 0.000 0.000 0 0
P206 N1506 N2059 12.96 0.0100 0.000 0.000 0 0
P207 N262 N145 12.87 0.0100 0.000 0.000 0 0
P208 N441 N1512 14.31 0.0120 0.000 0.000 0 0
P209 N2065 N380 17.85 0.0100 0.000 0.150 0 0
P210 N2022 N3273 4.78 0.0100 0.820 0.000 0 0
P211 N3148 N2748 23.85 0.0100 0.000 0.000 0 0
P212 N580 N255 22.14 0.0130 0.030 0.000 0 0
P213 N2945 N3294 20.83 0.0130 0.000 0.000 0 0
P214 N3262 N4254 18.35 0.0100 0.020 0.030 0 0
P215 N1816 N860 2.21 0.0100 0.000 0.000 0 0
P216 N1670 N4078 24.89 0.0100 0.000 0.000 0 0
P217 N2129 N2270 56.31 0.0100 0.000 0.030 0 0
P218 N2961 N746 22.94 0.0100 0.000 0.020 0 0
P219 N2017 N2500 8.46 0.0130 0.030 0.090 0 0
P220 N1776 N826 15.04 0.0100 0.430 0.589 0 0
P221 N1208 N487 18.17 0.0130 0.030 0.000 0 0
P222 N2930 N1779 11.62 0.0100 0.000 0.010 0 0
P223 N3486 N20 13.73 0.0130 0.000 0.010 0 0
P224 N4116 N3592 16.67 0.0130 0.370 0.000 0 0
P225 N52 N176 6.64 0.0120 0.000 2.760 0 0
P226 N2072 N1016 20.78 0.0130 0.000 0.010 0 0
P227 N4364 N2591 18.70 0.0130 0.040 0.210 0 0
P228 N1772 N3948 21.30 0.0100 0.000 0.020 0 0
P229 N952 N3214 20.04 0.0130 0.000 0.020 0 0
P230 N2190 N2399 17.87 0.0130 0.000 0.010 0 0
P231 N4244 N653 5.43 0.0100 0.000 0.320 0 0
P232 N352 N989 24.32 0.0100 0.000 0.000 0 0
P233 N3344 N3232 13.96 0.0130 0.000 0.010 0 0
P234 N3113 N918 1.85 0.0130 0.000 0.000 0 0
P235 N706 N249 11.29 0.0130 0.050 0.020 0 0
P236 N4160 N4000 19.52 0.0100 0.000 0.000 0 0
P237 N1465 N2212 13.97 0.0130 0.010 0.000 0 0
P238 N3196 N1446 17.03 0.0130 0.000 0.010 0 0
P239 N2749 N3785 28.81 0.0100 0.000 0.150 0 0
P240 N23 N303 25.61 0.0130 0.030 0.000 0 0
P241 N1621 N3550 5.97 0.0100 0.000 0.070 0 0
P242 N3321 N2282 9.82 0.0130 0.010 0.000 0 0
P243 N602 N3849 8.71 0.0130 0.020 0.000 0 0
P244 N3421 N3568 54.46 0.0130 0.000 0.000 0 0
P245 N2864 N2056 18.31 0.0110 0.000 0.000 0 0
P246 N345 N2216 13.09 0.0100 0.000 0.000 0 0
P247 N2082 N1340 22.29 0.0120 0.000 0.000 0 0
P248 N4035 N26 14.48 0.0100 0.200 0.000 0 0
P249 N36 N4331 18.76 0.0120 0.020 0.000 0 0
P250 N2702 N687 32.16 0.0100 0.000 0.220 0 0
P251 N81 N785 12.87 0.0100 0.010 0.000 0 0
P252 N1699 N1200 45.49 0.0100 0.000 0.620 0 0
P253 N2150 N2196 33.64 0.0100 0.000 1.380 0 0
P254 N1202 N2637 41.73 0.0100 0.010 3.000 0 0
P255 N4009 N3984 22.93 0.0130 0.010 0.000 0 0
P256 N4028 N21 1.99 0.0130 0.000 0.000 0 0
P257 N2736 N2884 4.43 0.0100 0.000 1.070 0 0
P258 N3854 N1853 15.32 0.0130 0.000 0.000 0 0
P259 N2521 N1593 14.00 0.0130 0.010 0.000 0 0
P260 N2824 N51 11.53 0.0100 0.000 0.000 0 0
P261 N808 N1560 19.51 0.0100 0.000 0.000 0 0
P262 N2288 N825 16.20 0.0120 0.020 0.010 0 0
P263 N710 N415 22.15 0.0130 1.060 0.010 0 0
P264 N1917 N3564 8.30 0.0120 0.000 0.030 0 0
P265 N524 N1627 15.59 0.0130 0.000 0.000 0 0
P266 N736 N4189 23.93 0.0100 0.070 0.000 0 0
P267 N2363 N280 13.70 0.0100 0.000 0.010 0 0
P268 N614 N339 3.34 0.0100 0.010 1.750 0 0
P269 N3320 N1667 16.38 0.0120 0.000 1.690 0 0
P270 N3426 S9 19.19 0.0100 0.000 0.850 0 0
P271 N2256 N2974 19.40 0.0100 0.010 0.000 0 0
P272 N144 N309 19.30 0.0120 0.000 0.000 0 0
P273 N3415 N4295 2.92 0.0100 0.000 0.000 0 0
P274 N727 N4188 18.99 0.0100 0.600 0.370 0 0
P275 N707 N3029 9.59 0.0120 0.190 0.130 0 0
P276 N3482 N1751 64.80 0.0130 0.000 0.040 0 0
P277 N2133 N507 49.43 0.0130 0.030 0.000 0 0
P278 N153 N2709 26.31 0.0130 0.000 0.050 0 0
P279 N3545 N3275 5.30 0.0130 0.010 0.010 0 0
P280 N4187 N3449 17.25 0.0130 0.020 0.050 0 0
P281 N3703 N2541 16.62 0.0100 0.000 0.000 0 0
P282 S10 N1625 13.69 0.0130 0.000 0.000 0 0
P283 N1292 N3714 17.33 0.0100 0.010 0.180 0 0
P284 N1560 N2618 13.71 0.0100 0.000 0.000 0 0
P285 N71 N293 33.88 0.0130 0.000 0.050 0 0
P286 N3826 N2247 50.35 0.0130 0.050 0.000 0 0
P287 N2584 N1825 8.39 0.0130 0.000 0.020 0 0
P288 N2989 N2136 42.91 0.0100 0.010 0.260 0 0
P289 N14 N1667 27.92 0.0130 0.020 0.010 0 0
P290 N1134 N3649 16.25 0.0130 0.020 0.000 0 0
P291 N2304 N377 10.46 0.0100 0.000 0.500 0 0
P292 N4143 N2605 13.38 0.0130 0.000 0.240 0 0
P293 N2514 N1329 28.23 0.0100 0.000 0.020 0 0
P294 N1535 N681 4.94 0.0130 0.010 0.000 0 0
P295 N2228 N2341 18.77 0.0100 0.000 0.000 0 0
P296 N730 N293 11.91 0.0130 0.000 0.620 0 0
P297 N1928 N1932 36.36 0.0130 0.020 0.020 0 0
P298 N4348 N294 2.44 0.0100 0.000 0.000 0 0
P299 N1554 N3634 2.42 0.0130 0.000 0.000 0 0
P300 N644 N3940 16.20 0.0100 0.000 0.000 0 0
P301 N3068 N4132 3.25 0.0100 0.050 0.000 0 0
P302 N1192 N4103 9.71 0.0110 0.030 0.070 0 0
P303 N762 N3083 3.11 0.0100 0.000 0.000 0 0
P304 N3024 N3715 19.60 0.0100 0.000 0.000 0 0
P305 N1801 N863 5.07 0.0130 0.000 0.030 0 0
P306 N1665 N3658 28.07 0.0130 0.000 0.000 0 0
P307 N2006 N387 10.40 0.0100 0.000 0.970 0 0
P308 N255 N2034 17.13 0.0130 0.000 0.000 0 0
P309 N2950 N1362 19.81 0.0100 0.000 0.010 0 0
P310 N2029 N2595 20.87 0.0100 0.000 0.000 0 0
P311 N4332 N3093 9.57 0.0130 0.000 0.310 0 0
P312 N3085 N3805 21.84 0.0130 0.030 0.040 0 0
P313 N1337 N496 16.38 0.0130 0.000 0.010 0 0
P314 N4082 N2352 22.04 0.0120 0.040 0.020 0 0
P315 N663 N1267 3.54 0.0130 1.230 0.000 0 0
P316 N1511 N3075 18.45 0.0130 0.000 0.000 0 0
P317 N3182 N3175 2.37 0.0100 0.000 0.000 0 0
P318 N3188 N167 37.08 0.0100 0.010 0.000 0 0
P319 N1621 N2767 8.95 0.0100 0.020 0.000 0 0
P320 N2442 N1354 2.51 0.0100 0.000 0.000 0 0
P321 N4306 N2473 2.01 0.0160 0.000 0.000 0 0
P322 N1081 N2000 17.01 0.0130 0.010 0.000 0 0
P323 N2864 N2085 19.26 0.0130 0.000 0.010 0 0
P324 N816 N3901 18.70 0.0130 0.000 0.000 0 0
P325 N4041 N330 41.02 0.0120 0.000 0.020 0 0
P326 N1441 N28 17.10 0.0100 0.000 0.000 0 0
P327 N952 N3280 16.51 0.0130 0.010 0.000 0 0
P328 N4355 N1338 2.81 0.0100 0.000 0.000 0 0
P329 N844 N3351 2.37 0.0100 0.000 0.000 0 0
P330 N3466 N2920 17.49 0.0100 0.020 0.000 0 0
P331 N3187 N3984 8.90 0.0130 0.010 0.000 0 0
P332 N496 N2738 20.50 0.0130 0.000 0.000 0 0
P333 N3006 N2563 58.48 0.0100 0.000 0.000 0 0
P334 N3714 N4057 10.10 0.0100 0.010 0.000 0 0
P335 N4095 N2050 12.79 0.0130 0.020 0.220 0 0
P336 N100 N4325 5.14 0.0100 0.000 0.020 0 0
P337 N621 N1438 4.81 0.0100 0.180 0.000 0 0
P338 N192 N1149 2.24 0.0160 0.000 0.000 0 0
P339 N4178 N3284 16.01 0.0130 0.000 0.000 0 0
P340 N3505 N3546 11.20 0.0120 0.010 0.010 0 0
P341 N4016 N2342 25.36 0.0120 0.000 0.060 0 0
P342 N3892 N2232 8.61 0.0130 0.080 0.010 0 0
P343 N3624 N2797 53.23 0.0130 0.000 0.280 0 0
P344 N2552 N325 12.24 0.0100 0.000 0.240 0 0
P345 N5 N2519 31.71 0.0100 0.000 0.010 0 0
P346 N2972 N4200 18.23 0.0100 0.000 0.010 0 0
P347 N701 N2191 4.88 0.0120 0.000 0.000 0 0
P348 N3496 N2531 10.60 0.0130 0.580 0.000 0 0
P349 N3266 N2038 14.08 0.0130 0.030 0.000 0 0
P350 N1170 N4110 42.04 0.0130 0.000 0.000 0 0
P351 N1756 N2747 4.19 0.0100 0.000 0.000 0 0
P352 N3171 N3994 13.50 0.0120 0.000 0.000 0 0
P353 N61 N3255 21.78 0.0130 0.000 0.000 0 0
P354 N3807 N588 20.24 0.0100 0.000 0.000 0 0
P355 N3709 N2594 44.99 0.0100 0.030 0.680 0 0
P356 N2239 N3769 2.59 0.0130 0.000 0.000 0 0
P357 N97 N353 46.43 0.0130 0.000 0.000 0 0
P358 N4102 N2112 35.79 0.0100 0.430 0.000 0 0
P359 N3296 N3343 6.83 0.0120 0.070 0.000 0 0
P360 N4269 N104 11.04 0.0130 0.160 0.000 0 0
P361 N1044 N835 15.00 0.0130 0.000 0.500 0 0
P362 N2829 N1759 30.54 0.0120 0.000 0.040 0 0
P363 N3798 N4172 43.07 0.0130 0.000 0.010 0 0
P364 N3081 N12 3.03 0.0130 0.000 0.000 0 0
P365 N1928 N3077 25.73 0.0130 0.000 0.100 0 0
P366 N1982 N3102 8.43 0.0100 0.000 0.000 0 0
P367 N1276 N786 11.19 0.0100 0.930 0.000 0 0
P368 N4205 N1405 13.50 0.0100 0.000 0.000 0 0
P369 N1319 N2109 26.61 0.0130 0.000 0.490 0 0
P370 N4289 N3920 16.25 0.0100 0.000 0.880 0 0
P371 N3981 N1089 7.18 0.0100 0.000 0.000 0 0
P372 N4030 N1018 16.26 0.0100 0.000 0.000 0 0
P373 N3821 N107 2.66 0.0100 0.000 0.000 0 0
P374 N1276 N1725 27.15 0.0130 0.000 0.220 0 0
P375 N1508 N1555 4.92 0.0130 0.000 0.000 0 0
P376 N4004 N2557 12.30 0.0130 0.000 0.010 0 0
P377 N4037 N2436 16.79 0.0100 0.000 0.000 0 0
P378 N3126 N3965 17.76 0.0100 0.000 0.000 0 0
P379 N3782 N3493 19.94 0.0130 0.000 0.000 0 0
P380 N3031 N4229 13.37 0.0100 0.060 0.180 0 0
P381 N2525 N1722 21.60 0.0130 0.010 0.000 0 0
P382 N2978 N4117 13.97 0.0130 0.000 0.000 0 0
P383 N2634 N3456 2.22 0.0100 0.000 0.000 0 0
P384 N2619 N2234 36.23 0.0100 0.000 0.020 0 0
P385 N3724 N398 61.65 0.0120 0.030 0.000 0 0
P386 N11 N3257 16.63 0.0130 0.090 0.000 0 0
P387 N134 N2345 18.65 0.0130 0.000 0.000 0 0
P388 N1499 N1508 70.18 0.0100 0.000 0.000 0 0
P389 N1858 N4327 19.82 0.0130 0.010 0.000 0 0
P390 N1402 N3551 16.84 0.0130 0.000 0.070 0 0
P391 N849 N549 30.06 0.0100 0.000 0.000 0 0
P392 S11 N3426 18.96 0.0100 0.000 0.270 0 0
P393 N1989 N2208 7.50 0.0130 0.070 0.650 0 0
P394 N2208 N2233 34.90 0.0100 0.030 0.010 0 0
P395 N3032 N1926 28.98 0.0100 0.000 0.000 0 0
P396 N2614 N4236 13.80 0.0100 0.010 1.030 0 0
P397 N2205 N3093 7.79 0.0130 0.010 0.240 0 0
P398 N2926 N2150 23.61 0.0130 0.000 0.000 0 0
P399 N983 N532 15.21 0.0100 0.000 1.340 0 0
P400 S12 N2745 9.35 0.0100 0.000 0.000 0 0
P401 N1764 N2292 13.88 0.0100 0.000 0.000 0 0
P402 N2110 N3968 1.00 0.0100 0.000 0.000 0 0
P403 N4050 N3268 2.71 0.0100 0.000 0.000 0 0
P404 N3259 N342 15.87 0.0100 0.000 0.450 0 0
P405 N2965 N3181 14.16 0.0100 0.000 0.310 0 0
P406 N1411 N2281 11.37 0.0130 0.020 0.030 0 0
P407 N405 N2407 17.83 0.0130 0.000 0.040 0 0
P408 N2667 N2824 8.18 0.0100 0.000 0.000 0 0
P409 N3147 N3223 2.14 0.0100 0.000 0.000 0 0
P410 N3264 N911 1.84 0.0130 0.000 0.010 0 0
P411 N1197 N2888 21.93 0.0130 0.000 0.020 0 0
P412 N3204 N2332 2.67 0.0100 0.000 0.000 0 0
P413 N2886 N544 16.92 0.0100 0.000 0.000 0 0
P414 N3097 N3591 16.99 0.0120 0.000 0.000 0 0
P415 N3012 N2872 9.49 0.0100 0.000 0.730 0 0
P416 N635 N3936 33.03 0.0100 0.000 0.000 0 0
P417 N3865 N552 23.51 0.0130 0.000 0.000 0 0
P418 N2234 N3208 34.97 0.0100 0.000 0.000 0 0
P419 N2101 N888 15.09 0.0100 0.000 0.010 0 0
P420 N1967 N376 5.26 0.0100 0.000 0.090 0 0
P421 N2007 N1148 20.26 0.0130 0.020 0.790 0 0
P422 N3096 N3801 6.49 0.0100 0.030 0.020 0 0
P423 N3133 N1827 15.81 0.0130 0.000 0.000 0 0
P424 N3445 N683 4.43 0.0100 0.000 0.923 0 0
P425 N180 N2340 10.43 0.0100 0.000 0.010 0 0
P426 N2137 N821 17.14 0.0100 0.000 0.620 0 0
P427 N2977 N528 1.00 0.0100 0.000 0.000 0 0
P428 N3879 N2432 2.80 0.0130 0.000 0.000 0 0
P429 N1504 N222 64.27 0.0100 0.230 0.240 0 0
P430 N1523 N3177 19.89 0.0130 0.000 0.040 0 0
P431 N2269 N3678 18.08 0.0120 0.000 0.000 0 0
P432 N109 N936 16.55 0.0100 0.000 0.500 0 0
P433 N4127 N1060 14.12 0.0130 0.000 0.030 0 0
P434 N911 N539 18.90 0.0130 0.000 0.000 0 0
P435 N2525 N140 19.73 0.0130 0.000 0.030 0 0
P436 N1938 S13 12.64 0.0100 0.000 1.190 0 0
P437 N4036 N719 1.00 0.0100 0.330 0.520 0 0
P438 N2327 N625 19.80 0.0130 0.060 0.000 0 0
P439 N1940 N3852 19.07 0.0100 0.000 0.000 0 0
P440 N950 N3575 18.55 0.0100 0.000 1.120 0 0
P441 N2819 N2671 17.68 0.0130 0.000 0.000 0 0
P442 N2553 N3764 7.32 0.0100 0.000 0.000 0 0
P443 N3458 N2624 15.93 0.0130 0.010 0.010 0 0
P444 N4260 N1168 21.81 0.0130 0.230 0.020 0 0
P445 N855 N1393 21.65 0.0100 0.000 0.000 0 0
P446 N1580 N1461 1.00 0.0120 0.000 0.000 0 0
P447 N4204 N39 40.95 0.0130 0.000 0.000 0 0
P448 N1673 N1952 14.72 0.0130 0.010 0.000 0 0
P449 N3481 N2115 24.14 0.0100 0.000 0.020 0 0
P450 N1587 N196 20.77 0.0100 0.000 0.090 0 0
P451 N2289 N4353 22.70 0.0100 0.000 0.000 0 0
P452 N78 N3928 19.54 0.0130 0.010 0.000 0 0
P453 N2731 N3978 5.04 0.0130 0.000 0.170 0 0
P454 N134 N3125 6.18 0.0130 3.450 0.010 0 0
P455 N399 N3581 9.69 0.0130 0.000 0.000 0 0
P456 N2298 N2522 5.49 0.0130 0.150 0.000 0 0
P457 N1026 N1769 15.06 0.0100 0.000 0.000 0 0
P458 N4030 N1456 11.87 0.0100 0.610 0.000 0 0
P459 N3213 N3901 19.93 0.0130 0.020 0.030 0 0
P460 N3219 N3248 1.28 0.0130 0.000 0.000 0 0
P461 N1778 N494 19.12 0.0130 0.000 0.000 0 0
P462 N3408 N1144 34.08 0.0100 0.000 0.000 0 0
P463 N2830 N1470 14.89 0.0130 0.000 0.080 0 0
P464 N3666 N3978 14.42 0.0130 0.000 0.000 0 0
P465 N1607 N3176 25.61 0.0100 0.010 0.000 0 0
P466 N1184 N3990 54.06 0.0100 0.030 0.000 0 0
P467 N589 N3026 10.89 0.0120 0.000 1.170 0 0
P468 N2838 N4029 9.86 0.0100 0.000 0.010 0 0
P469 N2012 N2263 25.90 0.0100 0.000 0.000 0 0
P470 N290 N1747 37.92 0.0100 0.000 0.020 0 0
P471 N1976 N3842 13.10 0.0130 0.000 0.000 0 0
P472 N2602 N1492 19.18 0.0120 0.000 0.150 0 0
P473 N852 N524 37.24 0.0100 0.000 0.040 0 0
P474 N2222 N2841 12.34 0.0130 0.040 0.010 0 0
P475 N2160 N1650 14.97 0.0130 0.000 0.040 0 0
P476 N196 N3916 63.79 0.0100 0.100 0.000 0 0
P477 N1085 N1846 21.71 0.0130 0.030 0.000 0 0
P478 N2771 N3750 50.04 0.0130 0.000 0.000 0 0
P479 N3286 N228 6.90 0.0130 0.000 0.020 0 0
P480 N2593 N3340 41.91 0.0130 0.010 0.000 0 0
P481 N541 N3342 2.47 0.0100 0.000 0.000 0 0
P482 N4 N3739 20.71 0.0130 0.000 0.000 0 0
P483 N1596 N2881 28.70 0.0130 0.000 0.020 0 0
P484 N1154 N3494 14.66 0.0130 0.020 1.460 0 0
P485 N368 N1570 21.00 0.0100 0.000 0.000 0 0
P486 N2144 N1887 10.13 0.0130 0.000 0.000 0 0
P487 N1720 N1407 10.04 0.0130 0.010 0.300 0 0
P488 N347 N647 12.53 0.0130 1.080 0.000 0 0
P489 N4336 N3094 24.21 0.0130 0.000 0.000 0 0
P490 N1759 N3100 4.22 0.0120 0.900 0.000 0 0
P491 N508 N3744 7.12 0.0130 0.000 0.000 0 0
P492 N3790 N199 3.45 0.0100 0.000 2.750 0 0
P493 N3018 N1979 36.55 0.0100 0.010 0.000 0 0
P494 N2339 N306 28.57 0.0130 0.000 0.000 0 0
P495 N1694 N1524 11.92 0.0120 0.000 0.000 0 0
P496 N2705 N1641 9.57 0.0100 0.010 1.740 0 0
P497 N921 N1600 26.43 0.0130 0.000 0.000 0 0
P498 N3098 N2669 14.63 0.0130 0.000 0.100 0 0
P499 N4190 N2707 2.50 0.0100 0.000 0.000 0 0
P500 N2289 N2007 18.16 0.0130 0.020 0.000 0 0
P501 N3470 N3399 16.13 0.0100 0.000 0.000 0 0
P502 N737 N2951 21.87 0.0130 0.000 0.020 0 0
P503 N797 N1561 24.69 0.0100 0.020 0.000 0 0
P504 N3576 S14 84.40 0.0130 0.000 0.000 0 0
P505 N3168 N4353 10.73 0.0100 0.080 0.010 0 0
P506 N1933 N2470 15.76 0.0130 0.000 0.000 0 0
P507 N4191 N3135 14.58 0.0130 0.000 0.000 0 0
P508 N156 N2616 20.62 0.0130 0.000 0.000 0 0
P509 N3690 N458 1.29 0.0100 0.000 0.000 0 0
P510 N2868 N736 15.80 0.0100 0.000 0.030 0 0
P511 N3659 N3640 37.77 0.0100 0.000 0.010 0 0
P512 N3863 N450 4.14 0.0100 0.010 2.970 0 0
P513 N706 N3734 14.00 0.0130 0.000 0.010 0 0
P514 N1164 N1459 30.77 0.0100 0.000 0.030 0 0
P515 N3070 N1714 60.51 0.0120 0.010 0.000 0 0
P516 N2727 N1760 37.50 0.0130 0.140 0.000 0 0
P517 N2989 N2732 45.34 0.0100 0.000 0.000 0 0
P518 N4270 N1769 17.16 0.0100 0.000 0.000 0 0
P519 N1380 N2492 4.38 0.0100 0.020 0.000 0 0
P520 N4106 N2392 14.20 0.0130 0.000 0.130 0 0
P521 N4177 N2877 33.94 0.0130 0.000 0.020 0 0
P522 N2242 N3315 19.26 0.0130 0.000 0.000 0 0
P523 N3014 N80 15.68 0.0130 0.010 0.000 0 0
P524 N1342 N1400 3.14 0.0100 0.000 0.540 0 0
P525 N2411 N238 9.27 0.0100 0.000 0.000 0 0
P526 N2257 N1597 6.23 0.0100 0.000 0.000 0 0
P527 N2138 N3161 20.41 0.0130 0.000 0.020 0 0
P528 N1835 N891 2.49 0.0100 0.000 0.000 0 0
P529 N314 N4227 2.89 0.0100 0.000 0.000 0 0
P530 N211 N927 37.54 0.0130 0.110 0.000 0 0
P531 N3277 N3661 1.50 0.0100 0.000 0.000 0 0
P532 N2280 N3831 26.50 0.0130 0.000 0.020 0 0
P533 N3793 N3969 10.93 0.0100 0.000 1.850 0 0
P534 N686 N2108 65.65 0.0100 0.000 0.880 0 0
P535 N2098 N1883 8.02 0.0100 0.000 0.000 0 0
P536 N3665 N2145 28.87 0.0100 0.000 0.000 0 0
P537 N796 N3041 2.26 0.0100 0.000 0.000 0 0
P538 N1494 N816 21.97 0.0130 0.010 0.020 0 0
P539 N4077 N2294 59.47 0.0100 0.000 0.000 0 0
P540 N2 N4216 19.00 0.0100 0.000 0.000 0 0
P541 N1308 N561 2.78 0.0130 0.000 0.000 0 0
P542 N2609 N2178 4.60 0.0100 0.040 0.070 0 0
P543 N1649 N2770 4.36 0.0100 0.000 0.030 0 0
P544 N3275 N1464 20.32 0.0130 0.000 0.000 0 0
P545 N659 N2610 24.04 0.0130 0.070 0.000 0 0
P546 N1063 N632 18.13 0.0100 0.010 0.000 0 0
P547 N864 N2625 18.27 0.0130 0.000 0.000 0 0
P548 N477 N1408 14.98 0.0130 0.000 0.000 0 0
P549 N1044 N2465 23.65 0.0130 0.000 0.000 0 0
P550 N2748 N2758 21.08 0.0100 0.000 0.000 0 0
P551 N993 N279 17.52 0.0130 0.000 0.010 0 0
P552 N745 N2671 5.10 0.0130 0.000 0.500 0 0
P553 N3205 N468 2.44 0.0100 0.000 0.000 0 0
P554 N1064 N2940 6.50 0.0130 0.000 1.080 0 0
P555 S15 N1173 16.11 0.0100 0.000 0.930 0 0
P556 N274 N1865 12.35 0.0100 0.000 0.220 0 0
P557 N1833 N4223 34.11 0.0130 0.000 0.110 0 0
P558 N1838 N1999 20.50 0.0130 0.500 0.000 0 0
P559 N3563 N1620 42.67 0.0100 0.000 0.000 0 0
P560 N3595 N2435 34.10 0.0110 0.050 0.000 0 0
P561 N3832 N2767 6.36 0.0100 0.000 0.040 0 0
P562 N358 N448 13.40 0.0100 0.000 0.000 0 0
P563 N870 N840 12.56 0.0130 0.000 0.280 0 0
P564 N3574 N960 32.36 0.0100 0.020 0.030 0 0
P565 N932 N1511 18.53 0.0130 0.010 0.020 0 0
P566 N334 N3328 2.47 0.0130 0.000 0.000 0 0
P567 N2734 N817 15.13 0.0100 0.010 0.110 0 0
P568 N1409 N3090 20.31 0.0130 0.010 0.000 0 0
P569 N2618 N322 23.54 0.0100 0.000 0.000 0 0
P570 N1038 N1623 25.53 0.0130 0.000 0.010 0 0
P571 N825 N3513 16.74 0.0120 0.000 0.220 0 0
P572 N1584 N1837 2.66 0.0130 0.000 0.000 0 0
P573 N986 N427 17.73 0.0100 0.000 0.000 0 0
P574 N1071 N2892 16.57 0.0130 0.010 0.020 0 0
P575 N327 S16 18.41 0.0100 4.380 0.000 0 0
P576 N4019 N32 14.13 0.0100 0.000 0.000 0 0
P577 N2414 N4283 2.75 0.0130 0.000 0.000 0 0
P578 N3881 N4342 11.06 0.0130 0.000 0.650 0 0
P579 N2656 N1579 24.57 0.0100 0.000 0.020 0 0
P580 N3726 N1559 17.60 0.0130 0.010 0.430 0 0
P581 N2758 N2837 33.63 0.0100 0.000 0.000 0 0
P582 N1102 N373 22.03 0.0120 0.010 0.000 0 0
P583 N1624 N2373 20.97 0.0130 0.010 0.000 0 0
P584 N2168 N3155 14.61 0.0100 0.000 0.000 0 0
P585 N1138 N840 36.70 0.0100 0.010 0.650 0 0
P586 N2484 N1094 14.07 0.0130 0.000 0.000 0 0
P587 N1879 N4231 21.81 0.0130 0.020 0.000 0 0
P588 N3965 N83 18.49 0.0100 0.010 0.000 0 0
P589 N2577 N638 2.58 0.0100 0.000 0.000 0 0
P590 N3739 S17 21.00 0.0130 0.000 0.000 0 0
P591 N518 N1200 7.84 0.0130 0.000 0.030 0 0
P592 N1748 N909 19.47 0.0100 0.000 0.000 0 0
P593 N2974 N321 21.26 0.0100 0.000 0.030 0 0
P594 N1951 N2921 12.43 0.0100 0.000 1.180 0 0
P595 N681 N602 6.65 0.0130 0.000 0.000 0 0
P596 N2613 N2260 17.18 0.0110 0.000 0.000 0 0
P597 N746 N65 16.27 0.0100 0.000 0.270 0 0
P598 N1016 N1650 5.87 0.0130 1.160 0.000 0 0
P599 N782 N968 11.48 0.0120 0.020 0.610 0 0
P600 N2032 N4175 1.93 0.0100 0.000 0.000 0 0
P601 N3208 N1420 37.36 0.0130 0.040 0.270 0 0
P602 N4319 N4065 13.43 0.0120 0.000 0.020 0 0
P603 S18 N883 61.15 0.0100 0.000 0.490 0 0
P604 N379 N3828 41.50 0.0130 0.030 0.010 0 0
P605 N3793 N339 9.21 0.0100 0.010 1.770 0 0
P606 N2564 N3677 9.27 0.0130 0.000 0.000 0 0
P607 N1889 N2048 1.56 0.0100 0.000 0.000 0 0
P608 N986 N1608 21.39 0.0100 0.000 0.010 0 0
P609 N3901 N820 15.12 0.0130 0.050 0.000 0 0
P610 N678 N2426 12.00 0.0100 0.000 0.000 0 0
P611 N4198 N176 37.15 0.0120 0.000 1.720 0 0
P612 N2690 N951 23.30 0.0120 0.000 0.010 0 0
P613 N228 N3949 21.72 0.0130 0.000 0.000 0 0
P614 N3006 N1903 2.40 0.0100 0.000 0.000 0 0
P615 N603 N3306 42.26 0.0130 0.000 0.030 0 0
P616 N3355 N1970 8.21 0.0100 0.000 0.000 0 0
P617 N3848 N1286 3.22 0.0100 0.000 0.000 0 0
P618 N1423 N1917 35.29 0.0130 0.000 0.000 0 0
P619 N1724 N808 19.33 0.0100 0.000 0.000 0 0
P620 N1177 N87 2.50 0.0100 0.000 0.000 0 0
P621 N3787 N1866 18.41 0.0100 0.000 0.000 0 0
P622 N2043 N4363 18.57 0.0100 0.000 0.000 0 0
P623 N1390 N1602 30.57 0.0100 0.000 0.280 0 0
P624 N3992 N2720 18.88 0.0120 0.000 0.000 0 0
P625 N1269 N3262 18.54 0.0100 0.000 0.000 0 0
P626 N853 N215 1.73 0.0100 0.000 0.000 0 0
P627 N613 N633 14.52 0.0100 0.000 0.020 0 0
P628 N827 N2477 20.19 0.0130 0.000 0.000 0 0
P629 N736 N842 40.33 0.0130 0.000 0.030 0 0
P630 N3938 N2802 41.55 0.0100 0.000 0.000 0 0
P631 N4097 N1935 1.00 0.0100 0.000 0.000 0 0
P632 N2189 N431 36.04 0.0130 0.000 2.510 0 0
P633 N2761 N3027 25.48 0.0100 0.000 0.000 0 0
P634 N878 N753 18.94 0.0100 0.000 0.410 0 0
P635 N2093 N1299 17.96 0.0100 0.000 0.000 0 0
P636 N1332 N2367 18.19 0.0100 0.000 0.000 0 0
P637 N4216 N4168 4.14 0.0100 0.000 0.000 0 0
P638 N3239 N1104 29.49 0.0130 0.000 0.020 0 0
P639 N1216 N2859 2.11 0.0100 3.590 0.000 0 0
P640 N2069 N3011 49.54 0.0100 0.000 0.000 0 0
P641 S19 N111 18.55 0.0100 0.000 0.000 0 0
P642 N640 N1164 33.72 0.0100 0.050 0.030 0 0
P643 N2161 N591 3.35 0.0100 0.000 0.610 0 0
P644 N4301 N502 12.78 0.0120 0.020 0.010 0 0
P645 N4089 N2545 22.29 0.0130 0.000 0.000 0 0
P646 N1612 N2642 65.59 0.0130 0.000 0.000 0 0
P647 N3572 N4320 37.12 0.0130 0.000 0.000 0 0
P648 N1254 N1368 32.57 0.0100 0.010 0.360 0 0
P649 N1962 N3040 16.86 0.0130 0.060 0.000 0 0
P650 N1212 N3096 23.37 0.0130 0.020 0.000 0 0
P651 N3027 N2338 16.98 0.0100 0.010 0.050 0 0
P652 N2993 N2422 5.78 0.0100 0.000 0.080 0 0
P653 N3131 N141 36.40 0.0130 0.000 0.000 0 0
P654 N3127 N1123 1.00 0.0100 0.000 0.000 0 0
P655 N3042 N1727 5.32 0.0100 0.000 2.660 0 0
P656 N2074 N3143 14.77 0.0100 0.000 0.000 0 0
P657 N3440 N3123 2.55 0.0130 0.000 0.000 0 0
P658 N1585 N972 32.96 0.0130 0.000 0.020 0 0
P659 N2148 N3847 11.93 0.0130 0.000 0.000 0 0
P660 N2195 N155 18.17 0.0100 0.000 0.020 0 0
P661 N2257 N1597 6.12 0.0100 0.000 0.000 0 0
P662 N248 N4358 3.13 0.0100 0.000 0.000 0 0
P663 N2060 N1953 40.77 0.0100 0.000 1.600 0 0
P664 N3477 N2208 10.84 0.0100 0.000 1.030 0 0
P665 N4157 N3018 35.40 0.0100 0.010 0.000 0 0
P666 N3871 N3617 48.65 0.0130 0.000 0.000 0 0
P667 N1681 N573 2.34 0.0100 0.000 0.000 0 0
P668 N2154 N138 24.93 0.0100 0.000 0.000 0 0
P669 N2158 N2567 3.36 0.0130 0.010 0.000 0 0
P670 N4238 N2147 52.58 0.0100 0.000 0.170 0 0
P671 N1848 N3428 20.05 0.0130 0.010 0.000 0 0
P672 N426 N1133 26.56 0.0130 0.000 0.010 0 0
P673 N784 N3700 15.94 0.0130 0.000 0.300 0 0
P674 N3696 N2052 21.53 0.0130 0.030 0.020 0 0
P675 N2438 N2391 20.32 0.0100 0.000 0.040 0 0
P676 N1376 N2025 3.65 0.0130 0.000 0.000 0 0
P677 N3149 N3974 2.58 0.0100 0.000 0.000 0 0
P678 N2008 N2614 3.70 0.0100 0.000 0.030 0 0
P679 N486 N2853 17.41 0.0100 0.000 0.000 0 0
P680 N2280 N3161 22.32 0.0130 0.020 0.000 0 0
P681 N391 N3846 8.14 0.0100 0.000 3.190 0 0
P682 N1329 N435 18.98 0.0100 0.000 0.020 0 0
P683 N4286 N1301 39.57 0.0100 0.000 0.020 0 0
P684 N2493 N4335 2.67 0.0100 0.000 0.000 0 0
P685 N2163 N1249 20.05 0.0130 0.000 0.020 0 0
P686 N974 N3272 16.88 0.0130 0.000 0.000 0 0
P687 N1351 N1766 1.42 0.0130 0.000 0.000 0 0
P688 N1139 N2521 11.15 0.0130 0.010 0.020 0 0
P689 N2561 N2469 5.99 0.0100 0.250 0.000 0 0
P690 N1702 N3197 49.12 0.0130 0.010 0.010 0 0
P691 N589 N172 14.54 0.0120 0.000 0.000 0 0
P692 N2273 N3499 15.32 0.0100 0.180 0.000 0 0
P693 N452 N3892 4.57 0.0130 0.000 0.190 0 0
P694 N1678 N3081 7.57 0.0130 0.000 0.020 0 0
P695 N569 N3119 33.57 0.0100 0.000 0.000 0 0
P696 N3222 N3071 59.47 0.0130 0.000 0.000 0 0
P697 N3902 N3959 26.83 0.0130 0.010 0.010 0 0
P698 N1174 N4229 64.84 0.0130 0.000 0.100 0 0
P699 N1882 N3828 12.15 0.0130 0.000 0.000 0 0
P700 N4078 N2240 5.61 0.0100 0.040 0.000 0 0
P701 N1619 N868 20.29 0.0100 0.000 0.000 0 0
P702 N3835 N2069 20.48 0.0100 0.000 0.050 0 0
P703 N4281 N2784 18.52 0.0120 0.000 0.000 0 0
P704 N3759 N3106 15.82 0.0130 0.010 0.020 0 0
P705 N2955 N848 37.52 0.0100 0.000 0.090 0 0
P706 N2474 N4073 15.77 0.0100 0.000 1.610 0 0
P707 N3608 N2369 2.35 0.0160 0.000 0.620 0 0
P708 N3721 N1204 10.10 0.0130 0.000 0.000 0 0
P709 N1454 N4118 32.50 0.0100 0.000 0.210 0 0
P710 N1345 N4059 3.07 0.0100 0.000 0.000 0 0
P711 N1723 N3684 10.41 0.0130 0.000 0.000 0 0
P712 N1211 N1413 47.18 0.0130 0.040 0.010 0 0
P713 N1392 N2288 17.66 0.0100 0.000 1.000 0 0
P714 N2420 N3570 8.77 0.0100 0.000 1.060 0 0
P715 N381 N1396 19.01 0.0130 0.000 0.000 0 0
P716 N1548 N4127 41.85 0.0130 0.020 0.140 0 0
P717 N4360 N571 9.43 0.0130 0.030 0.020 0 0
P718 N927 N2873 12.67 0.0130 0.040 0.000 0 0
P719 N3950 N829 19.65 0.0130 0.000 0.000 0 0
P720 N4349 N3580 24.24 0.0130 0.020 0.000 0 0
P721 N1600 N4349 22.15 0.0130 0.000 0.000 0 0
P722 N65 N1349 28.77 0.0130 0.020 0.000 0 0
P723 N3647 N2759 25.43 0.0100 0.000 0.680 0 0
P724 N3035 N691 15.65 0.0130 0.000 0.000 0 0
P725 N1682 N726 20.28 0.0130 0.000 0.040 0 0
P726 N1588 N2099 24.24 0.0100 0.000 0.000 0 0
P727 N2594 N2180 55.78 0.0120 0.000 0.010 0 0
P728 N333 N4121 15.64 0.0130 0.000 0.000 0 0
P729 N1184 N171 4.74 0.0130 0.000 0.010 0 0
P730 N3158 N3694 14.20 0.0130 0.050 0.110 0 0
P731 N2646 N219 15.73 0.0100 0.000 0.000 0 0
P732 N2695 N1764 16.71 0.0100 0.000 0.000 0 0
P733 N1912 N2815 6.84 0.0130 0.090 0.000 0 0
P734 N3705 N1175 14.27 0.0130 0.000 1.170 0 0
P735 N1296 N432 31.58 0.0100 0.000 0.000 0 0
P736 N430 N3077 7.54 0.0100 0.000 0.250 0 0
P737 N803 N3252 2.14 0.0100 0.000 0.000 0 0
P738 N865 N2540 11.84 0.0100 0.890 0.870 0 0
P739 N2712 N3079 48.44 0.0130 0.030 0.000 0 0
P740 N1460 N514 13.85 0.0100 0.000 0.000 0 0
P741 N3243 N901 11.97 0.0100 0.450 0.000 0 0
P742 N3083 N2824 5.73 0.0100 0.000 0.320 0 0
P743 N2755 N2082 20.05 0.0100 0.000 0.740 0 0
P744 N3730 N2098 12.94 0.0100 0.120 0.130 0 0
P745 N3736 N1359 12.11 0.0100 0.000 0.010 0 0
P746 N1632 N398 14.70 0.0130 0.020 1.440 0 0
P747 N1932 N4250 21.88 0.0130 0.000 0.000 0 0
P748 N332 N4324 52.83 0.0130 0.040 0.050 0 0
P749 N2340 N1657 16.15 0.0100 0.000 0.000 0 0
P750 N1380 N3005 19.81 0.0100 0.000 0.000 0 0
P751 N3282 N3701 6.20 0.0130 0.000 0.490 0 0
P752 N1362 N368 18.92 0.0100 0.000 0.000 0 0
P753 N372 N4082 18.88 0.0100 0.000 0.410 0 0
P754 S20 N1668 48.93 0.0120 0.000 0.000 0 0
P755 N2578 N68 22.51 0.0100 0.000 0.100 0 0
P756 N3605 N2880 6.22 0.0120 0.000 0.030 0 0
P757 N2037 N1953 23.96 0.0100 0.000 0.000 0 0
P758 N2580 N4180 13.25 0.0130 0.000 0.000 0 0
P759 N608 N673 16.94 0.0100 0.000 0.000 0 0
P760 N1921 N3334 19.36 0.0100 0.000 0.000 0 0
P761 N101 N3717 38.34 0.0100 0.000 0.170 0 0
P762 N1661 N1070 48.86 0.0100 0.000 0.000 0 0
P763 N2522 N96 32.11 0.0100 0.060 0.000 0 0
P764 N973 N2612 33.96 0.0100 0.010 0.000 0 0
P765 S21 N705 42.57 0.0130 0.000 0.010 0 0
P766 N2228 N3927 20.19 0.0100 0.000 0.010 0 0
P767 N993 N1151 18.16 0.0130 0.000 0.010 0 0
P768 N673 N64 20.48 0.0100 0.000 0.000 0 0
P769 N620 N1641 18.54 0.0120 0.000 0.000 0 0
P770 N3947 N879 2.34 0.0130 0.000 0.000 0 0
P771 N3566 N2505 33.48 0.0130 0.000 0.000 0 0
P772 N3026 N1253 20.15 0.0100 0.000 0.040 0 0
P773 N1031 N1329 31.66 0.0100 0.000 0.010 0 0
P774 N1614 N4240 34.65 0.0130 0.070 0.000 0 0
P775 N864 N227 20.40 0.0130 0.010 0.000 0 0
P776 N3853 N2794 78.17 0.0100 0.000 1.150 0 0
P777 N2338 N2988 6.23 0.0100 0.000 0.560 0 0
P778 N1655 N2396 14.54 0.0130 0.040 0.040 0 0
P779 N3438 N2291 4.74 0.0100 0.080 0.400 0 0
P780 N522 N1260 2.62 0.0100 0.000 0.000 0 0
P781 N3444 N3651 6.54 0.0100 0.010 0.260 0 0
P782 N3369 N4138 2.16 0.0100 0.000 0.000 0 0
P783 N2714 N2167 2.33 0.0100 0.000 0.000 0 0
P784 N2527 N2673 3.66 0.0100 0.000 0.000 0 0
P785 N2087 N4103 28.25 0.0120 0.000 0.020 0 0
P786 N3527 N298 6.26 0.0100 0.010 0.040 0 0
P787 N986 N3077 12.57 0.0100 0.000 0.000 0 0
P788 N1272 N2791 2.44 0.0100 0.000 0.000 0 0
P789 N333 N925 19.59 0.0130 0.020 0.000 0 0
P790 N757 N1807 37.21 0.0100 0.000 0.340 0 0
P791 N4338 N4238 47.40 0.0100 0.000 0.050 0 0
P792 N617 N4156 43.90 0.0100 0.000 0.040 0 0
P793 N709 N4329 2.38 0.0130 0.000 0.000 0 0
P794 N3454 N3801 8.08 0.0100 0.000 0.000 0 0
P795 N2340 N2594 13.87 0.0100 0.000 0.680 0 0
P796 N2889 N444 16.91 0.0100 0.030 0.010 0 0
P797 N4293 N3566 15.08 0.0130 0.000 0.000 0 0
P798 N2426 N1950 23.95 0.0100 0.510 1.090 0 0
P799 N1257 N3874 20.03 0.0100 0.000 0.020 0 0
P800 N1517 N104 11.31 0.0130 0.020 0.020 0 0
P801 N183 N3079 14.47 0.0100 0.000 0.370 0 0
P802 N1527 N3556 2.21 0.0130 0.000 0.000 0 0
P803 N1926 N1063 25.59 0.0100 0.000 0.000 0 0
P804 N674 N951 16.41 0.0100 0.000 0.000 0 0
P805 N2233 N3486 28.00 0.0120 0.000 0.040 0 0
P806 N1910 N1757 19.60 0.0130 0.120 0.000 0 0
P807 N550 N3558 2.62 0.0100 0.000 0.000 0 0
P808 N1132 N4012 44.46 0.0100 0.030 0.000 0 0
P809 N2555 N2445 51.86 0.0100 0.300 0.060 0 0
P810 N2047 N166 2.39 0.0100 0.000 0.000 0 0
P811 N1118 N3466 17.09 0.0100 0.000 0.000 0 0
P812 N515 N2766 2.20 0.0130 0.000 0.000 0 0
P813 N1096 N2924 3.36 0.0130 0.010 0.980 0 0
P814 N3054 N400 45.50 0.0130 0.020 0.020 0 0
P815 N1612 N1780 19.70 0.0130 0.020 0.000 0 0
P816 N2831 N2745 23.18 0.0100 0.000 0.110 0 0
P817 N3611 N3453 4.17 0.0100 0.000 0.220 0 0
P818 N3490 N1115 22.22 0.0120 0.000 0.010 0 0
P819 N750 N1515 2.59 0.0100 0.000 0.000 0 0
P820 N1192 N2760 7.92 0.0130 0.000 0.000 0 0
P821 N1766 N693 15.41 0.0130 0.000 0.000 0 0
P822 N225 N2692 58.84 0.0100 0.040 0.020 0 0
P823 N3767 N3246 19.06 0.0130 0.030 0.110 0 0
P824 N222 N1007 16.14 0.0130 0.010 0.000 0 0
P825 N477 N2692 13.89 0.0130 0.290 0.000 0 0
P826 N3578 N2158 5.25 0.0120 0.050 0.250 0 0
P827 N2642 N44 58.35 0.0130 0.000 0.040 0 0
P828 N1145 N3221 5.53 0.0100 0.000 0.000 0 0
P829 N2931 N1670 41.09 0.0100 0.000 0.000 0 0
P830 S22 N888 57.39 0.0130 0.000 0.010 0 0
P831 N3474 N1036 10.92 0.0100 0.020 0.000 0 0
P832 N1158 N3850 17.70 0.0100 0.000 0.000 0 0
P833 N2418 S23 22.26 0.0130 0.020 0.000 0 0
P834 N4133 N501 3.73 0.0100 0.150 0.000 0 0
P835 N3945 N2519 11.27 0.0100 0.000 0.410 0 0
P836 N176 N4135 94.58 0.0130 0.030 0.000 0 0
P837 N707 N4145 2.36 0.0100 0.000 0.000 0 0
P838 N840 N3356 22.97 0.0130 0.000 0.000 0 0
P839 N4200 N4029 18.03 0.0100 0.000 0.000 0 0
P840 N506 N2180 6.22 0.0100 0.000 0.800 0 0
P841 N2165 N900 12.68 0.0100 0.070 0.000 0 0
P842 N2202 N1839 13.85 0.0130 0.020 0.000 0 0
P843 N766 N1011 4.28 0.0130 0.000 0.000 0 0
P844 N3603 N266 36.73 0.0100 0.000 0.680 0 0
P845 N2660 N3451 44.17 0.0130 0.040 0.000 0 0
P846 N2929 N3197 2.15 0.0130 0.000 0.000 0 0
P847 N4014 N1270 7.21 0.0100 0.000 0.000 0 0
P848 N470 N2922 14.29 0.0100 0.000 0.010 0 0
P849 N140 N2678 23.13 0.0130 0.000 0.010 0 0
P850 N3190 N4011 8.41 0.0100 0.000 0.200 0 0
P851 N3624 N590 6.87 0.0100 0.000 0.000 0 0
P852 N1268 S24 39.11 0.0100 0.000 0.000 0 0
P853 N1480 N1983 28.65 0.0130 0.480 0.000 0 0
P854 N1130 N3295 18.48 0.0130 0.000 0.010 0 0
P855 N2724 N2180 15.25 0.0100 0.000 0.680 0 0
P856 N3356 N3513 19.60 0.0130 0.000 0.390 0 0
P857 N783 N1738 33.90 0.0100 0.000 0.030 0 0
P858 N3310 S25 13.73 0.0130 0.000 0.000 0 0
P859 N1838 N2395 18.42 0.0130 0.010 0.000 0 0
P860 N3882 N3481 23.95 0.0100 0.000 0.010 0 0
P861 N2295 N2142 3.79 0.0130 0.000 0.180 0 0
P862 N3535 N280 63.06 0.0130 0.000 0.020 0 0
P863 N546 N2644 2.23 0.0100 0.000 0.000 0 0
P864 N3594 N3969 8.24 0.0130 0.000 1.340 0 0
P865 N299 N1169 2.25 0.0100 0.000 0.000 0 0
P866 N1191 N3669 26.56 0.0100 0.000 0.000 0 0
P867 N790 N2379 12.33 0.0130 0.010 0.000 0 0
P868 N1276 N1265 20.33 0.0120 0.160 0.000 0 0
P869 N327 N431 48.24 0.0130 0.000 0.000 0 0
P870 N1216 N3170 1.32 0.0130 3.020 0.000 0 0
P871 N3189 N3126 22.03 0.0100 0.010 0.150 0 0
P872 N3748 N2202 14.08 0.0130 0.000 0.000 0 0
P873 N1307 N3734 15.93 0.0130 0.000 0.000 0 0
P874 N509 N163 16.77 0.0100 0.000 0.170 0 0
P875 N2927 N906 12.90 0.0130 0.040 0.000 0 0
P876 N114 N2260 14.23 0.0110 0.000 0.420 0 0
P877 N2979 N31 18.75 0.0130 0.000 0.000 0 0
P878 N2100 N3386 19.40 0.0130 0.080 0.300 0 0
P879 N108 N2461 17.34 0.0130 0.000 0.170 0 0
P880 N4221 N1112 15.98 0.0130 0.000 0.000 0 0
P881 N2149 N3922 9.34 0.0100 0.000 0.000 0 0
P882 N1322 N577 9.70 0.0100 0.320 0.000 0 0
P883 N2650 N2054 1.11 0.0100 0.110 0.000 0 0
P884 N3781 N2361 10.89 0.0100 0.000 0.010 0 0
P885 N1141 N2637 37.19 0.0100 0.000 3.040 0 0
P886 N4007 N4235 22.02 0.0110 0.010 0.000 0 0
P887 N3666 N781 55.36 0.0130 0.000 0.030 0 0
P888 N2135 N2147 43.82 0.0100 0.000 0.180 0 0
P889 S13 N3131 33.94 0.0130 0.000 0.000 0 0
P890 N536 S26 13.92 0.0100 0.000 0.000 0 0
P891 N97 N1875 16.01 0.0130 0.010 0.000 0 0
P892 S27 N593 37.66 0.0130 0.000 0.000 0 0
P893 N4075 N805 62.23 0.0100 0.000 0.180 0 0
P894 N366 N374 4.63 0.0100 0.000 1.000 0 0
P895 N3023 N2877 9.42 0.0130 0.110 0.000 0 0
P896 N525 N2139 5.44 0.0100 0.000 0.400 0 0
P897 N848 N1324 60.11 0.0130 0.000 0.100 0 0
P898 N4294 N3913 62.37 0.0130 0.000 0.020 0 0
P899 N3554 N1201 17.16 0.0120 0.000 0.000 0 0
P900 N3156 N2700 17.61 0.0130 0.000 0.060 0 0
P901 N1205 N1725 14.26 0.0130 0.000 0.000 0 0
P902 N1817 N2323 8.23 0.0100 0.000 0.000 0 0
P903 N3385 N2711 12.62 0.0100 0.000 0.000 0 0
P904 N2727 N1475 31.66 0.0130 0.000 0.030 0 0
P905 N2108 N3508 1.68 0.0100 1.270 0.000 0 0
P906 N2740 N581 2.70 0.0100 0.000 0.000 0 0
P907 N497 N2105 18.89 0.0100 0.000 0.010 0 0
P908 N906 N3775 15.24 0.0130 0.060 0.050 0 0
P909 N1002 N974 14.33 0.0100 0.010 0.270 0 0
P910 N3914 N2232 20.19 0.0130 0.000 0.000 0 0
P911 N4015 N4183 21.81 0.0130 0.000 0.000 0 0
P912 N2122 N1857 20.31 0.0100 0.000 0.000 0 0
P913 N2049 N955 35.40 0.0130 0.040 0.000 0 0
P914 N3189 N1509 67.22 0.0100 0.150 0.450 0 0
P915 N1934 N624 2.53 0.0130 0.000 0.000 0 0
P916 N470 N3787 16.80 0.0100 0.000 0.000 0 0
P917 N448 N3143 13.89 0.0100 0.000 0.990 0 0
P918 N4262 N4029 16.25 0.0100 0.000 0.000 0 0
P919 N48 N4291 50.25 0.0130 0.000 0.000 0 0
P920 N4147 N480 3.55 0.0100 0.000 0.000 0 0
P921 N20 N3719 37.92 0.0130 0.000 0.000 0 0
P922 N772 N2147 6.80 0.0130 1.160 0.000 0 0
P923 N474 N2488 18.43 0.0120 0.010 0.000 0 0
P924 N1144 N1506 33.19 0.0100 0.000 0.000 0 0
P925 N1739 N3754 23.52 0.0130 0.000 0.300 0 0
P926 N2637 N1751 73.06 0.0130 0.040 0.000 0 0
P927 N2425 N2253 2.10 0.0100 0.000 0.000 0 0
P928 N3499 N3522 3.47 0.0120 0.060 0.000 0 0
P929 N4323 N3099 20.21 0.0130 0.000 0.000 0 0
P930 N2513 N1483 22.96 0.0100 0.520 0.000 0 0
P931 N1358 N2635 36.11 0.0130 0.030 0.000 0 0
P932 N2128 N2269 12.80 0.0120 0.010 0.010 0 0
P933 N2863 N398 3.73 0.0160 0.000 1.180 0 0
P934 N3617 N3724 16.93 0.0130 0.000 0.000 0 0
P935 N3795 N1121 46.37 0.0130 0.000 0.040 0 0
P936 N3293 N382 22.92 0.0100 0.000 0.000 0 0
P937 N123 N1300 2.39 0.0130 0.000 0.000 0 0
P938 N451 N794 18.62 0.0130 0.020 0.000 0 0
P939 N3604 N584 8.74 0.0130 0.000 0.000 0 0
P940 N3285 N1440 13.52 0.0100 0.000 0.260 0 0
P941 N2959 N2464 64.64 0.0130 0.040 0.040 0 0
P942 N1581 N664 15.63 0.0100 0.000 0.400 0 0
P943 N199 N916 55.21 0.0130 0.020 0.000 0 0
P944 N880 N213 24.28 0.0130 0.000 0.010 0 0
P945 N184 N1217 2.26 0.0100 0.000 0.000 0 0
P946 N2166 N1653 54.87 0.0130 0.000 0.000 0 0
P947 N47 N4361 22.51 0.0100 0.000 0.000 0 0
P948 N3464 N3086 20.71 0.0130 0.000 0.000 0 0
P949 N2298 N3783 25.28 0.0130 0.000 0.010 0 0
P950 N105 N666 18.76 0.0120 0.020 0.030 0 0
P951 N2818 N3484 2.85 0.0130 0.000 0.000 0 0
P952 N893 N927 6.83 0.0100 0.000 0.400 0 0
P953 N2717 N2331 14.81 0.0130 0.030 0.000 0 0
P954 N1294 N2464 5.51 0.0100 0.000 1.960 0 0
P955 N4130 N4107 12.80 0.0120 0.000 0.000 0 0
P956 N2637 N533 8.53 0.0130 2.640 0.000 0 0
P957 N3673 N2687 22.87 0.0100 0.000 0.000 0 0
P958 N3344 N3493 16.08 0.0130 0.000 0.000 0 0
P959 N466 N667 17.03 0.0120 0.010 0.000 0 0
P960 N3103 N4196 2.51 0.0100 0.000 0.000 0 0
P961 N788 N3296 10.02 0.0130 0.000 0.000 0 0
P962 N1230 N150 22.73 0.0130 0.000 0.000 0 0
P963 N4071 N2153 9.34 0.0100 0.000 1.430 0 0
P964 N1700 N1480 19.28 0.0100 0.020 0.000 0 0
P965 N2351 N2548 22.30 0.0130 0.000 0.000 0 0
P966 N892 N846 11.31 0.0130 0.020 0.000 0 0
P967 N2504 N2121 21.03 0.0100 0.020 0.010 0 0
P968 N4201 N3029 8.01 0.0130 0.000 0.000 0 0
P969 N3759 N867 17.97 0.0130 0.000 0.020 0 0
P970 N401 N185 15.52 0.0100 0.000 0.000 0 0
P971 N3406 N1185 2.50 0.0100 0.000 0.000 0 0
P972 N743 N2403 2.83 0.0130 0.000 0.270 0 0
P973 N2405 N2866 29.12 0.0100 0.700 0.000 0 0
P974 N699 N3537 18.80 0.0130 0.000 0.030 0 0
P975 N1662 N2970 18.38 0.0100 0.250 0.020 0 0
P976 N2343 N1788 2.44 0.0100 0.000 0.000 0 0
P977 N1232 N1556 2.09 0.0100 0.000 0.000 0 0
P978 N84 N540 18.32 0.0130 0.000 0.000 0 0
P979 N2561 N3864 70.27 0.0100 0.000 0.280 0 0
P980 N643 N3211 14.91 0.0130 0.040 0.000 0 0
P981 N2098 N2716 18.39 0.0100 0.000 0.000 0 0
P982 N4154 N1404 12.03 0.0100 0.000 2.070 0 0
P983 N973 N2311 23.59 0.0100 0.000 0.000 0 0
P984 N4322 N3031 42.20 0.0130 0.000 0.050 0 0
P985 N3968 N2648 1.00 0.0100 0.000 0.000 0 0
P986 N1963 N452 6.24 0.0130 0.000 0.000 0 0
P987 N4320 N1992 60.61 0.0130 0.040 0.480 0 0
P988 N2392 N937 25.00 0.0120 0.000 0.030 0 0
P989 N1183 N3414 12.05 0.0100 0.000 0.000 0 0
P990 N3949 N1105 15.93 0.0130 0.000 0.050 0 0
P991 N430 N3659 16.64 0.0100 0.010 0.010 0 0
P992 N2116 N1317 13.55 0.0100 0.000 0.730 0 0
P993 N4064 N1759 11.13 0.0130 0.000 0.700 0 0
P994 N1070 N617 6.50 0.0100 0.010 0.140 0 0
P995 N2066 N450 47.40 0.0100 0.000 2.870 0 0
P996 N2402 N2930 31.93 0.0100 0.000 0.330 0 0
P997 N527 N2227 16.63 0.0100 0.440 0.000 0 0
P998 N1545 N1436 17.18 0.0130 0.000 0.000 0 0
P999 N3892 N143 14.30 0.0130 0.000 0.000 0 0
P1000 N3459 N2484 15.96 0.0130 0.020 0.080 0 0
P1001 N1539 N1585 9.07 0.0130 0.000 0.000 0 0
P1002 N1068 N214 31.13 0.0130 0.000 0.000 0 0
P1003 N1291 N3143 28.19 0.0100 0.000 0.490 0 0
P1004 S28 N1843 39.82 0.0130 0.000 0.000 0 0
P1005 N4193 N3177 19.98 0.0130 0.000 0.000 0 0
P1006 N3651 N2927 15.65 0.0100 0.000 0.520 0 0
P1007 N312 N3851 24.06 0.0130 0.020 0.030 0 0
P1008 N435 N557 26.39 0.0130 0.000 0.010 0 0
P1009 N2212 N3035 22.05 0.0130 0.000 0.010 0 0
P1010 N4317 N3470 20.72 0.0100 0.000 0.000 0 0
P1011 N1880 N13 17.22 0.0100 0.000 0.000 0 0
P1012 N1750 N3730 14.48 0.0130 0.000 0.000 0 0
P1013 N4100 N274 45.46 0.0100 0.000 0.060 0 0
P1014 N317 N41 2.87 0.0100 0.000 0.000 0 0
P1015 N4011 N3426 39.59 0.0100 0.000 0.090 0 0
P1016 N2175 N4313 2.41 0.0100 0.000 0.000 0 0
P1017 N877 N3433 16.30 0.0120 0.000 0.000 0 0
P1018 N1136 N1460 10.88 0.0100 0.000 0.000 0 0
P1019 N3227 N1142 25.69 0.0130 0.000 0.000 0 0
P1020 N668 N4307 2.43 0.0120 0.050 0.020 0 0
P1021 N2686 N3816 33.59 0.0100 0.000 0.000 0 0
P1022 N4079 N1313 2.19 0.0100 0.000 0.000 0 0
P1023 N1094 N3368 10.68 0.0130 0.030 0.060 0 0
P1024 N2489 N3727 15.04 0.0130 0.000 0.000 0 0
P1025 N2676 N3554 3.38 0.0100 0.000 0.520 0 0
P1026 N280 N1632 16.55 0.0130 0.000 0.320 0 0
P1027 N616 N2116 49.74 0.0100 0.000 0.010 0 0
P1028 N4187 N708 20.12 0.0130 0.000 0.000 0 0
P1029 N1785 N6 21.11 0.0130 0.010 0.000 0 0
P1030 N3979 N1061 4.26 0.0130 0.000 0.080 0 0
P1031 N2528 N2789 2.30 0.0100 0.000 0.000 0 0
P1032 N3044 N935 6.99 0.0100 0.320 0.000 0 0
P1033 N676 N2665 9.31 0.0100 0.000 0.020 0 0
P1034 N1262 N1427 5.53 0.0100 0.060 0.000 0 0
P1035 N943 N2521 14.29 0.0130 0.000 0.000 0 0
P1036 N344 N3842 19.88 0.0100 0.000 0.050 0 0
P1037 N1846 N175 25.57 0.0130 0.010 0.000 0 0
P1038 N640 N3480 3.95 0.0100 0.000 0.020 0 0
P1039 N2699 N2813 29.82 0.0130 0.000 0.000 0 0
P1040 N3745 N2057 12.69 0.0100 0.000 0.000 0 0
P1041 N787 N913 2.27 0.0100 0.000 0.000 0 0
P1042 N4133 N865 27.62 0.0100 0.000 0.720 0 0
P1043 N723 N1810 17.55 0.0100 0.010 0.000 0 0
P1044 N2907 N318 14.41 0.0100 0.000 0.000 0 0
P1045 N2393 N1812 14.40 0.0100 0.000 0.000 0 0
P1046 N3423 N2658 16.16 0.0130 0.010 0.020 0 0
P1047 N3870 N4160 20.00 0.0100 0.000 0.000 0 0
P1048 N1244 N3869 1.95 0.0160 0.000 0.000 0 0
P1049 N1868 N1980 2.44 0.0100 0.000 0.000 0 0
P1050 N881 N2320 59.09 0.0100 0.010 0.000 0 0
P1051 N1863 N910 14.71 0.0130 0.000 0.000 0 0
P1052 N2960 N2734 44.23 0.0100 0.000 0.000 0 0
P1053 N1638 N4066 24.13 0.0100 0.000 0.000 0 0
P1054 N1969 N4165 2.29 0.0100 0.000 0.000 0 0
P1055 N1357 N4078 17.88 0.0100 0.000 0.000 0 0
P1056 N2774 N2237 37.65 0.0100 0.000 0.000 0 0
P1057 N46 N3278 20.69 0.0130 0.000 0.070 0 0
P1058 N1636 N1076 18.27 0.0130 0.000 0.010 0 0
P1059 N1425 N872 10.33 0.0100 0.010 0.010 0 0
P1060 N4110 N1614 40.68 0.0130 0.040 0.050 0 0
P1061 N2949 N3213 21.40 0.0130 0.040 0.000 0 0
P1062 N3933 N462 18.26 0.0100 0.020 0.000 0 0
P1063 N2396 N3164 22.60 0.0130 0.000 0.000 0 0
P1064 N2458 N2335 24.27 0.0130 0.010 0.000 0 0
P1065 N2761 N1088 40.72 0.0100 0.000 0.190 0 0
P1066 N2471 N1867 11.09 0.0130 0.000 0.000 0 0
P1067 N3804 N609 18.46 0.0120 0.000 0.000 0 0
P1068 N1858 N3339 18.07 0.0130 0.000 0.040 0 0
P1069 N3928 N1100 19.89 0.0130 0.000 0.020 0 0
P1070 N3418 N4233 20.70 0.0100 0.000 0.000 0 0
P1071 N2645 N348 87.23 0.0130 0.000 0.060 0 0
P1072 N661 N28 5.20 0.0100 0.000 0.000 0 0
P1073 N3501 N4085 19.72 0.0130 0.010 0.000 0 0
P1074 N367 N692 22.30 0.0130 0.000 0.010 0 0
P1075 N4179 N940 18.70 0.0100 0.130 0.000 0 0
P1076 N1826 N4218 22.43 0.0100 0.290 0.000 0 0
P1077 N562 N725 13.05 0.0130 0.140 0.300 0 0
P1078 N1178 N2237 22.16 0.0120 0.010 0.000 0 0
P1079 N2490 N1220 2.88 0.0100 0.000 0.000 0 0
P1080 N1873 N1212 4.88 0.0100 0.040 0.590 0 0
P1081 N960 N520 25.21 0.0100 0.010 0.000 0 0
P1082 N2605 N3680 25.85 0.0100 0.000 0.000 0 0
P1083 N1886 N2347 20.23 0.0130 0.000 0.000 0 0
P1084 N1448 N3636 22.60 0.0130 0.000 0.010 0 0
P1085 N930 N92 15.76 0.0100 0.000 0.550 0 0
P1086 N1899 N2589 21.47 0.0100 0.000 0.000 0 0
P1087 N3532 N3680 13.32 0.0100 0.000 0.000 0 0
P1088 N2063 N3961 2.88 0.0100 0.420 0.000 0 0
P1089 N1331 N2258 10.31 0.0100 0.040 0.000 0 0
P1090 N3270 N3153 33.26 0.0130 0.810 0.000 0 0
P1091 N3463 N2742 28.53 0.0130 0.000 0.010 0 0
P1092 N3857 N4206 19.12 0.0100 0.000 0.000 0 0
P1093 N2067 N3198 3.42 0.0100 0.640 0.000 0 0
P1094 N93 N2846 3.20 0.0130 0.000 0.330 0 0
P1095 N705 S29 36.38 0.0100 0.030 0.000 0 0
P1096 N3338 N2176 21.24 0.0100 0.010 0.000 0 0
P1097 N3129 N1886 7.33 0.0130 0.000 0.000 0 0
P1098 N1516 N2374 18.53 0.0130 0.060 0.000 0 0
P1099 N3696 N1758 11.02 0.0130 0.000 0.380 0 0
P1100 N0 N228 21.70 0.0100 0.000 0.050 0 0
P1101 N2124 N1994 21.06 0.0100 0.000 0.000 0 0
P1102 N1257 N2312 18.63 0.0100 0.000 0.000 0 0
P1103 N3657 N3981 24.21 0.0100 0.000 0.090 0 0
P1104 N126 N124 17.66 0.0130 0.020 0.020 0 0
P1105 N3031 N1629 17.29 0.0130 0.000 0.000 0 0
P1106 N2337 N3226 15.35 0.0130 0.000 0.260 0 0
P1107 N3457 N2051 12.48 0.0100 0.000 1.480 0 0
P1108 N2625 N647 25.95 0.0130 0.030 0.120 0 0
P1109 N2054 N755 12.45 0.0120 0.000 0.000 0 0
P1110 N884 N2164 15.11 0.0130 0.000 0.010 0 0
P1111 N4087 N162 4.58 0.0130 0.000 0.550 0 0
P1112 N3184 N589 13.11 0.0120 0.000 0.000 0 0
P1113 N38 N2078 2.35 0.0100 0.000 0.000 0 0
P1114 N2860 N2919 2.87 0.0100 0.000 0.000 0 0
P1115 N3871 N4101 49.90 0.0130 0.020 0.100 0 0
P1116 N2380 N3142 5.56 0.0130 0.000 2.570 0 0
P1117 S30 N2194 25.35 0.0100 0.000 0.010 0 0
P1118 N1371 N2531 13.46 0.0130 0.000 0.000 0 0
P1119 N2422 N376 28.14 0.0130 0.050 0.000 0 0
P1120 N2489 N2892 13.78 0.0130 0.010 0.000 0 0
P1121 N319 N3707 20.82 0.0120 0.000 0.020 0 0
P1122 N1591 N1218 15.15 0.0120 0.000 0.000 0 0
P1123 N2812 N3115 22.56 0.0100 0.010 0.000 0 0
P1124 N254 N2315 25.67 0.0100 0.000 0.000 0 0
P1125 N3050 N489 2.23 0.0130 0.000 0.000 0 0
P1126 N585 N988 20.33 0.0130 0.000 0.000 0 0
P1127 N873 N3533 5.19 0.0130 0.000 0.000 0 0
P1128 N1900 N1192 23.15 0.0130 0.010 0.070 0 0
P1129 N3864 N3341 41.39 0.0100 0.000 0.170 0 0
P1130 N155 N2660 22.14 0.0100 0.000 0.000 0 0
P1131 N3401 N138 24.58 0.0100 0.110 0.000 0 0
P1132 N4298 N257 18.82 0.0130 0.000 0.030 0 0
P1133 N1391 N609 4.41 0.0100 0.000 1.770 0 0
P1134 N2079 N1596 32.87 0.0130 0.000 0.000 0 0
P1135 N2257 N920 4.33 0.0160 0.010 0.000 0 0
P1136 N3244 N106 9.00 0.0120 0.000 0.000 0 0
P1137 N2154 N3516 15.12 0.0100 0.000 0.000 0 0
P1138 N180 N1005 11.02 0.0100 0.030 0.000 0 0
P1139 N374 N1407 53.90 0.0120 0.030 0.000 0 0
P1140 N342 N1678 14.21 0.0100 0.000 0.010 0 0
P1141 N1385 N1452 17.52 0.0130 0.030 0.000 0 0
P1142 N3990 N2421 23.58 0.0130 0.010 0.000 0 0
P1143 N3134 N2985 45.90 0.0130 0.000 0.000 0 0
P1144 N3701 N1537 19.49 0.0130 0.000 0.000 0 0
P1145 N2874 N2143 28.64 0.0130 0.010 0.000 0 0
P1146 N1543 N1727 46.62 0.0130 0.000 0.030 0 0
P1147 N579 N2673 32.17 0.0130 0.000 0.480 0 0
P1148 N425 N3674 12.31 0.0120 0.010 0.000 0 0
P1149 N1279 N1706 3.34 0.0120 0.000 0.000 0 0
P1150 N2813 N1228 22.03 0.0130 0.000 0.010 0 0
P1151 N3515 N2339 18.55 0.0130 0.010 0.010 0 0
P1152 N3207 N1916 2.34 0.0130 0.000 0.000 0 0
P1153 N119 N2811 2.67 0.0100 0.000 0.000 0 0
P1154 N2880 N3628 16.53 0.0130 0.010 0.010 0 0
P1155 N1552 N1687 16.99 0.0100 0.000 0.010 0 0
P1156 N2104 N2821 15.98 0.0100 0.000 0.020 0 0
P1157 N3115 N4014 28.91 0.0100 0.410 0.590 0 0
P1158 N3932 N2822 1.62 0.0100 0.000 0.010 0 0
P1159 N2319 N3076 21.56 0.0130 0.000 0.000 0 0
P1160 N3241 N2067 26.60 0.0100 0.000 0.640 0 0
P1161 N2265 N411 6.41 0.0100 0.000 0.000 0 0
P1162 N1791 N2191 45.33 0.0100 0.000 0.590 0 0
P1163 N3413 N2066 45.99 0.0100 0.000 0.030 0 0
P1164 N193 N962 1.00 0.0130 0.000 0.000 0 0
P1165 N1248 N3469 16.84 0.0100 0.030 0.000 0 0
P1166 N1020 N628 2.30 0.0160 0.000 0.000 0 0
P1167 N4264 N1897 17.51 0.0130 0.000 0.000 0 0
P1168 N3163 N1148 14.38 0.0130 0.320 0.790 0 0
P1169 N1215 N3077 23.05 0.0100 0.010 0.300 0 0
P1170 N3623 N3459 6.52 0.0130 0.000 0.610 0 0
P1171 N1987 N984 60.03 0.0130 0.010 0.040 0 0
P1172 N2464 N1235 15.97 0.0100 2.420 0.010 0 0
P1173 N3159 N2006 24.85 0.0130 0.000 0.020 0 0
P1174 N4032 N2039 12.22 0.0130 0.000 0.000 0 0
P1175 N450 N2268 83.72 0.0110 0.020 0.000 0 0
P1176 N1216 N90 18.82 0.0130 3.460 0.000 0 0
P1177 N3788 N3388 8.56 0.0100 0.000 0.060 0 0
P1178 N127 N435 26.07 0.0130 0.000 0.010 0 0
P1179 N3452 N2418 23.12 0.0130 0.250 0.000 0 0
P1180 N2746 N35 33.57 0.0130 0.020 0.040 0 0
P1181 N3 N2350 9.92 0.0100 0.410 0.520 0 0
P1182 N1605 N1895 17.12 0.0120 0.000 0.000 0 0
P1183 N3776 N3003 18.37 0.0130 0.000 0.000 0 0
P1184 N731 N1997 56.83 0.0100 0.010 0.010 0 0
P1185 N781 N1577 40.89 0.0130 0.000 0.010 0 0
P1186 N2189 N2735 7.12 0.0130 0.000 0.010 0 0
P1187 N1107 N3842 18.30 0.0130 0.000 0.000 0 0
P1188 N2645 N1261 79.65 0.0130 0.020 0.070 0 0
P1189 N3610 N2655 2.53 0.0100 0.000 0.000 0 0
P1190 N605 N1643 30.22 0.0100 0.000 0.000 0 0
P1191 N2227 N2 24.62 0.0100 0.000 0.000 0 0
P1192 N3285 N2580 40.35 0.0100 0.000 0.020 0 0
P1193 N1369 N1078 2.23 0.0100 0.000 0.000 0 0
P1194 N4084 N331 22.77 0.0100 0.020 0.000 0 0
P1195 N999 N4310 11.11 0.0120 0.200 0.000 0 0
P1196 N1690 N2997 53.69 0.0100 0.050 0.040 0 0
P1197 N1708 N4236 5.61 0.0100 0.000 0.780 0 0
P1198 N971 N570 20.89 0.0100 0.000 0.000 0 0
P1199 N3124 N2575 13.68 0.0120 0.000 2.680 0 0
P1200 N1519 N419 18.92 0.0120 0.000 0.000 0 0
P1201 N3795 N2808 17.01 0.0130 0.030 0.060 0 0
P1202 N2290 N1504 15.53 0.0100 0.000 0.000 0 0
P1203 N1508 N1223 45.06 0.0100 0.980 0.000 0 0
P1204 N2981 N1077 21.99 0.0130 0.000 0.020 0 0
P1205 N1435 N3402 9.00 0.0100 0.000 0.560 0 0
P1206 N730 N1399 27.51 0.0100 0.000 0.000 0 0
P1207 N2273 N3891 23.29 0.0130 0.000 0.000 0 0
P1208 N2794 S31 56.46 0.0130 0.040 0.000 0 0
P1209 N2247 N1436 42.34 0.0130 0.000 0.090 0 0
P1210 N1521 N249 22.42 0.0130 0.010 0.000 0 0
P1211 N3225 N1330 20.63 0.0130 0.000 0.010 0 0
P1212 N1427 N4213 6.88 0.0100 0.000 0.120 0 0
P1213 N3498 N3977 1.31 0.0110 0.010 0.020 0 0
P1214 N3402 N3701 18.64 0.0130 0.000 0.000 0 0
P1215 N2724 N383 16.17 0.0100 0.000 0.000 0 0
P1216 N3766 N2012 41.18 0.0100 0.000 0.000 0 0
P1217 N3555 N3452 14.53 0.0130 0.000 0.220 0 0
P1218 N3499 N3925 3.47 0.0120 0.040 0.000 0 0
P1219 N1875 N1829 22.63 0.0130 0.020 0.000 0 0
P1220 N2257 N1597 6.36 0.0100 0.000 0.000 0 0
P1221 N1962 N1358 38.77 0.0130 0.000 0.000 0 0
P1222 N4067 N1737 8.67 0.0130 1.010 0.000 0 0
P1223 N4314 N3518 2.28 0.0130 0.000 0.000 0 0
P1224 N1677 N3468 49.50 0.0130 0.000 0.390 0 0
P1225 N1299 N449 20.20 0.0100 0.000 0.000 0 0
P1226 N1648 N3884 47.13 0.0100 0.000 0.010 0 0
P1227 N1802 N4134 5.77 0.0100 0.070 0.000 0 0
P1228 N2112 N3422 35.30 0.0100 0.780 0.000 0 0
P1229 N3023 N2073 28.08 0.0130 0.000 0.030 0 0
P1230 N3841 N2087 14.25 0.0100 0.000 0.960 0 0
P1231 N2685 N1487 2.31 0.0100 0.000 0.000 0 0
P1232 N4057 N59 7.06 0.0100 0.000 0.010 0 0
P1233 N4032 N3186 6.11 0.0130 0.000 0.000 0 0
P1234 N1795 N3272 15.20 0.0130 0.000 0.000 0 0
P1235 N657 N2390 2.49 0.0130 0.000 0.000 0 0
P1236 N3663 N3053 2.63 0.0100 0.000 0.000 0 0
P1237 N2916 N244 30.50 0.0130 0.090 0.030 0 0
P1238 N3009 N236 23.05 0.0130 0.000 0.020 0 0
P1239 N1465 N212 13.80 0.0130 0.000 0.030 0 0
P1240 N4161 N1342 12.13 0.0100 0.010 0.050 0 0
P1241 N3380 N710 56.72 0.0100 0.020 0.020 0 0
P1242 N1536 N1380 10.75 0.0100 0.000 0.270 0 0
P1243 N4068 N1562 25.82 0.0100 1.450 0.000 0 0
P1244 S32 N794 24.20 0.0130 0.000 0.010 0 0
P1245 N1792 N873 55.58 0.0100 0.000 0.890 0 0
P1246 N3128 N2830 21.22 0.0130 0.010 0.020 0 0
P1247 N742 N1842 7.55 0.0100 0.210 0.000 0 0
P1248 N1128 N1247 24.30 0.0130 0.010 0.390 0 0
P1249 N664 N2938 21.07 0.0100 0.000 1.930 0 0
P1250 N3857 N333 36.12 0.0100 0.000 0.780 0 0
P1251 N1001 N3993 28.57 0.0100 0.000 2.190 0 0
P1252 N4225 N2891 1.91 0.0130 0.000 0.000 0 0
P1253 N801 N1715 14.90 0.0130 0.000 0.000 0 0
P1254 N148 N2886 18.13 0.0100 0.000 0.010 0 0
P1255 N1045 N2286 2.34 0.0100 0.000 0.000 0 0
P1256 N3845 N4308 22.77 0.0130 0.000 0.000 0 0
P1257 N2398 N437 44.50 0.0130 0.000 0.000 0 0
P1258 N2958 N2022 52.00 0.0120 0.020 0.060 0 0
P1259 N4300 N1030 19.75 0.0100 0.000 0.680 0 0
P1260 N2322 N1277 19.39 0.0100 0.000 0.020 0 0
P1261 N714 N3980 5.52 0.0100 0.000 0.470 0 0
P1262 N3208 N2939 3.43 0.0130 0.010 0.000 0 0
P1263 N3686 N2585 23.52 0.0130 0.030 0.010 0 0
P1264 N3479 N3168 24.29 0.0130 0.000 0.030 0 0
P1265 N617 N2401 36.48 0.0100 0.130 0.030 0 0
P1266 S33 N3498 8.81 0.0100 0.000 2.780 0 0
P1267 N1481 N3485 56.30 0.0130 0.000 0.200 0 0
P1268 N2543 N3461 6.76 0.0130 0.000 0.510 0 0
P1269 N2726 N429 8.68 0.0100 0.010 0.010 0 0
P1270 N1266 N3870 18.32 0.0100 0.000 0.000 0 0
P1271 N3232 N1642 17.79 0.0130 0.000 0.000 0 0
P1272 N588 N1210 22.65 0.0100 0.000 0.000 0 0
P1273 N1559 N810 16.70 0.0130 0.000 0.000 0 0
P1274 N3569 N1483 19.83 0.0100 0.000 0.020 0 0
P1275 N2589 N3331 33.95 0.0100 0.000 0.000 0 0
P1276 N3249 N263 48.32 0.0130 0.070 0.000 0 0
P1277 N2281 N4235 5.22 0.0100 0.000 0.190 0 0
P1278 N623 N2961 8.64 0.0100 0.000 0.000 0 0
P1279 N475 N4125 33.28 0.0130 0.000 0.000 0 0
P1280 N3393 N3995 36.45 0.0130 0.000 0.000 0 0
P1281 N920 N1120 5.90 0.0160 0.000 0.000 0 0
P1282 N246 N2006 18.33 0.0100 0.000 0.010 0 0
P1283 N3883 N3906 11.37 0.0100 0.010 2.320 0 0
P1284 N1077 N2928 20.32 0.0130 0.000 0.040 0 0
P1285 N3064 N2759 11.31 0.0100 0.530 0.000 0 0
P1286 N1456 N1270 20.11 0.0100 0.010 0.450 0 0
P1287 N2260 S34 20.02 0.0110 0.000 0.000 0 0
P1288 N3877 N3244 17.13 0.0120 0.040 0.000 0 0
P1289 N1812 N1183 12.00 0.0100 0.010 0.000 0 0
P1290 N2971 N1899 12.59 0.0100 0.000 0.020 0 0
P1291 N1862 N2165 19.47 0.0100 0.000 0.070 0 0
P1292 N3222 N829 35.02 0.0130 0.070 0.000 0 0
P1293 N2158 N2719 14.67 0.0130 0.000 0.000 0 0
P1294 N1914 N3324 2.97 0.0130 0.000 0.000 0 0
P1295 N1579 N207 30.28 0.0100 0.000 0.000 0 0
P1296 N3890 N2737 16.52 0.0100 0.000 0.010 0 0
P1297 N63 N812 2.18 0.0100 0.000 0.000 0 0
P1298 N2315 N3790 23.76 0.0100 0.080 0.060 0 0
P1299 N2846 N3061 20.02 0.0130 0.000 0.530 0 0
P1300 N2114 N1738 12.58 0.0120 0.000 0.000 0 0
P1301 N406 N1640 13.69 0.0130 0.000 0.000 0 0
P1302 N1495 N3438 7.58 0.0130 0.000 0.000 0 0
P1303 N99 N2581 16.48 0.0130 0.040 0.000 0 0
P1304 N2034 N1627 16.08 0.0130 0.030 1.130 0 0
P1305 N896 N3550 17.69 0.0100 0.000 0.260 0 0
P1306 N2510 N530 8.71 0.0100 0.000 0.000 0 0
P1307 N3095 N273 2.00 0.0130 0.000 0.000 0 0
P1308 N3378 N1006 2.74 0.0100 0.000 0.000 0 0
P1309 N4328 N1056 19.97 0.0130 0.000 0.010 0 0
P1310 N3220 N2911 40.10 0.0100 0.000 0.000 0 0
P1311 N4324 N3694 16.73 0.0130 0.090 0.000 0 0
P1312 N4215 N2331 14.84 0.0100 0.000 0.130 0 0
P1313 N3462 N4287 1.96 0.0160 0.950 0.000 0 0
P1314 N3061 N852 15.50 0.0130 0.000 0.030 0 0
P1315 N1028 N2611 49.35 0.0130 0.100 0.000 0 0
P1316 N4025 N886 9.66 0.0100 0.030 0.000 0 0
P1317 N1250 N1756 14.57 0.0100 0.000 0.000 0 0
P1318 N725 N2517 3.74 0.0130 0.000 0.000 0 0
P1319 N3660 S5 36.75 0.0100 0.000 0.570 0 0
P1320 N4169 N3955 21.20 0.0100 0.010 0.000 0 0
P1321 N3652 N852 21.42 0.0130 0.000 0.770 0 0
P1322 N4176 N2291 38.77 0.0130 0.000 0.020 0 0
P1323 N3306 N1334 34.82 0.0100 0.030 0.030 0 0
P1324 N4162 N3693 20.40 0.0130 0.000 0.030 0 0
P1325 N4066 N1156 27.36 0.0130 0.040 0.030 0 0
P1326 N1874 N3108 13.13 0.0100 0.000 0.000 0 0
P1327 N1719 N3712 27.07 0.0100 0.010 0.010 0 0
P1328 N224 N2708 84.98 0.0130 0.000 0.000 0 0
P1329 N2527 N3972 9.59 0.0120 0.000 0.000 0 0
P1330 N4226 N1411 19.20 0.0130 0.000 0.000 0 0
P1331 N2720 N2128 16.12 0.0120 0.050 0.000 0 0
P1332 N2721 N3459 13.54 0.0130 0.690 0.000 0 0
P1333 N225 N4338 49.40 0.0100 0.000 0.080 0 0
P1334 N3470 N2218 7.46 0.0130 0.100 0.000 0 0
P1335 N1434 N798 22.31 0.0100 0.000 0.000 0 0
P1336 N720 N1756 24.22 0.0100 0.000 0.000 0 0
P1337 N4280 N4204 27.07 0.0130 0.210 0.000 0 0
P1338 N3498 N2268 16.49 0.0100 3.520 3.340 0 0
P1339 N866 N1298 4.14 0.0120 0.000 0.500 0 0
P1340 N1618 N896 14.00 0.0100 0.000 0.200 0 0
P1341 N1606 N2578 14.05 0.0100 0.000 0.020 0 0
P1342 N1760 N60 53.31 0.0130 0.000 0.030 0 0
P1343 N1181 N3364 10.27 0.0130 0.000 0.000 0 0
P1344 N356 N16 22.82 0.0130 0.000 0.050 0 0
P1345 N1403 N2456 2.77 0.0100 0.000 0.000 0 0
P1346 N4027 N3858 21.15 0.0100 0.000 0.000 0 0
P1347 N2534 N1029 11.59 0.0130 0.000 0.000 0 0
P1348 N1208 N1469 19.51 0.0130 0.000 0.040 0 0
P1349 N1419 N3221 6.29 0.0100 0.000 0.370 0 0
P1350 N50 N4210 20.81 0.0100 0.000 0.160 0 0
P1351 N3727 N2888 18.24 0.0130 0.020 0.000 0 0
P1352 N3646 N1174 13.49 0.0100 0.000 0.360 0 0
P1353 N3861 N343 26.16 0.0100 0.000 0.050 0 0
P1354 N3058 N3485 3.28 0.0130 0.000 0.280 0 0
P1355 N3468 N1293 2.06 0.0130 0.930 0.000 0 0
P1356 N1642 N1775 12.32 0.0130 0.000 0.000 0 0
P1357 N1627 N1057 44.52 0.0100 1.910 0.010 0 0
P1358 N626 N975 76.51 0.0100 0.000 0.430 0 0
P1359 N677 N1072 20.10 0.0100 0.010 0.000 0 0
P1360 N946 N3993 10.94 0.0100 0.000 2.560 0 0
P1361 N1326 N906 20.30 0.0100 0.000 0.480 0 0
P1362 N1948 N4280 11.60 0.0100 0.000 0.000 0 0
P1363 N3290 N1404 18.81 0.0120 0.010 0.010 0 0
P1364 N1708 N2270 10.70 0.0100 0.030 0.000 0 0
P1365 N4231 N636 12.04 0.0130 0.030 0.330 0 0
P1366 N4061 N4026 2.04 0.0100 0.000 0.000 0 0
P1367 N3972 N826 14.76 0.0100 0.740 0.000 0 0
P1368 N22 N4228 14.36 0.0120 0.000 0.030 0 0
P1369 N4135 N99 16.89 0.0130 3.990 0.000 0 0
P1370 N262 N2044 15.14 0.0100 0.000 0.000 0 0
P1371 N4156 N1191 23.98 0.0130 0.040 0.000 0 0
P1372 N2029 N608 17.57 0.0100 0.000 0.000 0 0
P1373 N2979 N2639 20.43 0.0130 0.000 0.000 0 0
P1374 N3902 N1472 27.90 0.0130 0.000 0.020 0 0
P1375 N2497 N2422 17.87 0.0130 0.000 0.000 0 0
P1376 N1634 N1677 33.96 0.0130 0.000 0.010 0 0
P1377 N2559 N928 24.09 0.0100 0.000 0.000 0 0
P1378 N3966 N1344 18.44 0.0130 0.000 0.000 0 0
P1379 N3321 N277 16.31 0.0130 0.000 0.000 0 0
P1380 N1018 S35 13.33 0.0100 0.630 0.000 0 0
P1381 N79 N2865 5.29 0.0100 0.000 0.110 0 0
P1382 N3992 N4211 6.28 0.0120 0.030 0.000 0 0
P1383 N2075 N3778 22.38 0.0100 0.000 0.000 0 0
P1384 N2598 N3461 15.86 0.0130 0.000 0.000 0 0
P1385 N3079 N2851 63.89 0.0130 0.010 0.000 0 0
P1386 N59 N948 15.79 0.0100 0.000 0.000 0 0
P1387 N3547 N3353 21.40 0.0130 0.000 0.000 0 0
P1388 N3564 N461 6.35 0.0120 0.000 0.020 0 0
P1389 N2575 N199 56.20 0.0130 0.090 0.000 0 0
P1390 N4346 N1074 52.51 0.0130 0.000 0.020 0 0
P1391 N4214 N2842 18.69 0.0100 0.000 0.040 0 0
P1392 N1516 N2406 18.58 0.0130 0.000 0.020 0 0
P1393 N3853 N2135 43.09 0.0100 0.010 0.240 0 0
P1394 N2672 N3244 4.86 0.0100 0.010 0.850 0 0
P1395 N1189 N1996 27.07 0.0100 0.000 0.000 0 0
P1396 N2697 N1070 39.42 0.0100 0.000 0.010 0 0
P1397 N2434 N2633 2.39 0.0100 0.000 0.000 0 0
P1398 N2466 N839 2.31 0.0100 0.000 0.000 0 0
P1399 N3339 N3452 14.17 0.0130 0.000 0.170 0 0
P1400 N290 N2103 27.03 0.0100 0.020 0.000 0 0
P1401 N1469 N1457 53.97 0.0120 0.000 0.000 0 0
P1402 N1566 N3866 10.62 0.0100 0.140 0.000 0 0
P1403 N3080 N2674 16.24 0.0130 0.000 0.100 0 0
P1404 N170 N2424 31.07 0.0130 0.000 0.000 0 0
P1405 N1 N72 17.25 0.0100 0.000 0.010 0 0
P1406 N3639 N315 1.08 0.0130 0.000 0.000 0 0
P1407 N1729 N2928 5.23 0.0120 0.000 0.170 0 0
P1408 N2548 N1402 25.17 0.0130 0.000 0.010 0 0
P1409 N168 N2351 25.38 0.0130 0.030 0.030 0 0
P1410 N1727 N3653 9.04 0.0130 0.000 0.000 0 0
P1411 N955 N396 10.47 0.0130 0.000 0.000 0 0
P1412 N1998 N1069 35.14 0.0100 0.000 0.020 0 0
P1413 N1468 N2326 17.81 0.0100 0.000 0.000 0 0
P1414 N4341 N1298 20.15 0.0130 0.000 0.000 0 0
P1415 N1103 N2697 37.76 0.0100 0.000 0.010 0 0
P1416 N195 N1504 22.05 0.0100 0.000 0.000 0 0
P1417 N2643 N614 14.44 0.0100 0.000 0.000 0 0
P1418 N3167 N2637 77.00 0.0130 0.000 0.000 0 0
P1419 N3714 N3118 6.83 0.0100 0.000 0.000 0 0
P1420 N500 N1532 3.34 0.0100 0.000 0.000 0 0
P1421 N449 N3276 27.49 0.0100 0.000 0.000 0 0
P1422 N3003 N3353 22.41 0.0130 0.020 0.010 0 0
P1423 N1241 N513 2.69 0.0130 0.000 0.000 0 0
P1424 N2853 N1614 11.68 0.0100 0.000 0.000 0 0
P1425 N2480 N79 35.06 0.0100 0.000 0.000 0 0
P1426 N969 N4016 6.50 0.0130 0.010 0.200 0 0
P1427 N2624 N2509 16.40 0.0130 0.000 0.000 0 0
P1428 N3750 N518 66.70 0.0130 0.000 0.040 0 0
P1429 N2210 N2970 8.78 0.0100 0.000 0.000 0 0
P1430 N3433 N3387 18.20 0.0120 0.000 0.010 0 0
P1431 N2716 N2093 16.41 0.0100 0.000 0.010 0 0
P1432 N3195 N912 20.96 0.0100 0.000 0.000 0 0
P1433 N4240 N1758 48.95 0.0130 0.000 0.020 0 0
P1434 N2635 N4255 60.57 0.0130 0.030 0.130 0 0
P1435 N811 N2210 25.52 0.0100 0.000 0.000 0 0
P1436 N688 N2128 36.76 0.0100 0.000 1.150 0 0
P1437 N2220 N3989 2.18 0.0100 0.000 0.000 0 0
P1438 N1327 N2884 24.05 0.0120 0.000 0.000 0 0
P1439 N1689 N723 3.88 0.0100 0.000 0.340 0 0
P1440 N519 N3076 78.56 0.0100 0.010 0.050 0 0
P1441 N3330 N3599 58.73 0.0100 0.000 0.000 0 0
P1442 N1904 N3854 19.92 0.0130 0.000 0.020 0 0
P1443 N1363 N2396 36.91 0.0100 0.000 0.330 0 0
P1444 N3046 N3334 9.20 0.0100 0.020 0.230 0 0
P1445 N1088 N1 22.58 0.0100 0.000 0.000 0 0
P1446 N978 N3217 18.48 0.0100 0.000 1.240 0 0
P1447 N3265 N1408 36.38 0.0130 0.020 0.050 0 0
P1448 S36 N2101 44.64 0.0130 0.000 0.000 0 0
P1449 N2259 N1381 2.58 0.0100 0.000 0.000 0 0
P1450 N1503 N2041 12.06 0.0130 0.000 0.150 0 0
P1451 N3504 N3759 7.69 0.0130 0.000 0.310 0 0
P1452 N771 N2870 24.68 0.0130 0.020 0.030 0 0
P1453 N3063 N2088 18.45 0.0130 0.000 0.000 0 0
P1454 N22 N4073 15.82 0.0120 0.000 0.000 0 0
P1455 N759 N2808 54.99 0.0130 0.040 0.250 0 0
P1456 N1857 N2960 34.64 0.0100 0.020 0.050 0 0
P1457 N3364 N1162 15.88 0.0130 0.100 0.000 0 0
P1458 N1374 N1966 25.32 0.0100 0.000 0.010 0 0
P1459 N1791 N2773 4.04 0.0130 0.020 0.000 0 0
P1460 N2617 N2957 61.51 0.0130 0.010 0.040 0 0
P1461 N385 N3746 18.99 0.0130 0.000 0.000 0 0
P1462 N4361 N720 22.95 0.0100 0.000 0.000 0 0
P1463 N2874 N4346 19.67 0.0130 0.000 0.020 0 0
P1464 N4076 N1861 5.58 0.0130 0.000 0.000 0 0
P1465 N3152 N2087 21.10 0.0100 0.000 0.930 0 0
P1466 N1379 N3862 2.69 0.0100 0.000 0.000 0 0
P1467 N4000 N1277 4.74 0.0100 0.010 0.020 0 0
P1468 N1557 N16 16.29 0.0130 0.000 0.000 0 0
P1469 N2159 N3699 1.59 0.0100 0.000 0.000 0 0
P1470 N2472 N3846 40.85 0.0130 0.000 0.000 0 0
P1471 N4255 N2133 49.32 0.0100 1.500 1.590 0 0
P1472 N3066 N2670 19.97 0.0100 0.000 0.000 0 0
P1473 N1348 N1235 38.81 0.0100 0.000 0.000 0 0
P1474 N1073 N1295 2.55 0.0130 0.000 0.000 0 0
P1475 N202 N554 19.23 0.0130 0.000 0.000 0 0
P1476 N648 N745 61.94 0.0100 0.000 0.040 0 0
P1477 N1597 N3121 23.88 0.0130 0.020 0.000 0 0
P1478 N769 N4057 12.32 0.0100 0.000 0.080 0 0
P1479 N1442 N785 17.12 0.0100 0.010 0.000 0 0
P1480 N2009 N1154 54.97 0.0130 0.000 0.000 0 0
P1481 N2568 N3341 18.83 0.0130 0.020 0.000 0 0
P1482 N397 N582 4.50 0.0160 1.790 0.000 0 0
P1483 N3628 N1004 5.89 0.0130 0.000 0.010 0 0
P1484 N1315 N2214 2.48 0.0100 0.000 0.400 0 0
P1485 N2940 N2829 33.71 0.0120 0.020 0.010 0 0
P1486 N10 N2717 37.19 0.0130 0.020 0.000 0 0
P1487 N3256 N2020 52.76 0.0100 0.030 0.000 0 0
P1488 N437 N1174 11.38 0.0100 0.000 0.030 0 0
P1489 N1290 N3433 19.54 0.0100 0.000 1.010 0 0
P1490 N3080 N3966 17.34 0.0130 0.050 0.010 0 0
P1491 N1953 N2074 16.26 0.0100 0.020 0.000 0 0
P1492 N775 N2249 24.32 0.0100 0.000 0.000 0 0
P1493 N3181 N2613 15.71 0.0110 0.000 0.020 0 0
P1494 N1803 N622 2.45 0.0100 0.000 0.000 0 0
P1495 N3537 N2575 4.62 0.0120 0.000 2.440 0 0
P1496 N2966 N1228 18.43 0.0130 0.270 0.000 0 0
P1497 N1567 N1079 35.10 0.0130 0.480 0.000 0 0
P1498 N4166 N619 57.27 0.0130 0.000 0.070 0 0
P1499 N3221 N2868 17.59 0.0100 0.000 0.000 0 0
P1500 N3096 N1434 17.34 0.0130 0.010 0.000 0 0
P1501 N4038 N4130 15.11 0.0120 0.440 0.100 0 0
P1502 N1209 N1203 2.52 0.0100 0.000 0.000 0 0
P1503 N2254 N3475 7.00 0.0130 0.000 0.300 0 0
P1504 N1733 N3136 20.10 0.0130 0.000 0.010 0 0
P1505 N9 N1718 2.54 0.0130 0.000 0.000 0 0
P1506 N3565 N1282 3.32 0.0100 1.010 0.000 0 0
P1507 N1388 N1292 15.96 0.0100 0.000 0.000 0 0
P1508 N1346 N779 26.07 0.0100 0.000 0.010 0 0
P1509 N375 N674 22.52 0.0100 0.000 0.020 0 0
P1510 N1859 N4171 2.50 0.0100 0.000 0.000 0 0
P1511 N1065 N1960 20.52 0.0130 0.010 0.430 0 0
P1512 N890 N2282 12.03 0.0130 0.000 0.010 0 0
P1513 N850 N3139 2.27 0.0100 0.000 0.000 0 0
P1514 N822 N2712 51.66 0.0130 0.030 0.000 0 0
P1515 S37 N3032 29.49 0.0100 0.000 0.000 0 0
P1516 N382 N1270 20.80 0.0100 0.000 0.790 0 0
P1517 N3569 N2113 33.98 0.0100 0.000 0.010 0 0
P1518 N2395 N3635 6.15 0.0130 0.020 0.000 0 0
P1519 N2312 N1824 21.19 0.0100 0.010 0.000 0 0
P1520 N3945 N769 7.33 0.0100 0.160 0.060 0 0
P1521 N516 N2405 36.80 0.0100 0.000 0.000 0 0
P1522 N2113 N2842 20.43 0.0100 0.000 0.000 0 0
P1523 N3573 N298 28.98 0.0100 0.000 0.070 0 0
P1524 N753 N3920 17.08 0.0130 0.010 0.440 0 0
P1525 N4340 N3682 1.99 0.0130 0.000 0.000 0 0
P1526 N3084 N350 2.43 0.0100 0.000 0.000 0 0
P1527 N564 N2435 1.90 0.0110 0.000 0.010 0 0
P1528 N2862 N2133 31.37 0.0100 0.000 1.450 0 0
P1529 N2557 N2268 7.70 0.0130 0.000 2.920 0 0
P1530 N1223 N4102 9.50 0.0100 0.000 0.430 0 0
P1531 N1569 N1081 13.70 0.0130 0.000 0.000 0 0
P1532 N3922 N1258 5.51 0.0100 0.000 0.000 0 0
P1533 N3468 N1992 42.70 0.0100 0.000 0.000 0 0
P1534 N235 N3939 11.38 0.0130 0.000 0.000 0 0
P1535 N276 N2884 8.24 0.0100 0.000 0.920 0 0
P1536 N1721 N2769 2.17 0.0100 0.000 0.000 0 0
P1537 N182 N3026 19.67 0.0100 0.000 0.020 0 0
P1538 N1239 N428 2.36 0.0100 0.000 0.000 0 0
P1539 N2302 N880 24.47 0.0130 0.000 0.010 0 0
P1540 N1541 N352 22.58 0.0100 0.000 0.000 0 0
P1541 N1115 N3505 15.79 0.0120 0.000 0.000 0 0
P1542 N1301 N1674 11.87 0.0100 0.000 0.120 0 0
P1543 N3923 N4193 21.23 0.0100 0.000 1.720 0 0
P1544 N3297 N2313 2.60 0.0100 0.000 0.000 0 0
P1545 N4184 N3774 44.94 0.0130 0.000 0.020 0 0
P1546 N2271 N2935 2.10 0.0100 0.000 0.000 0 0
P1547 N3614 N3724 8.69 0.0100 0.020 2.300 0 0
P1548 N992 N1399 24.80 0.0100 0.010 0.000 0 0
P1549 N1589 N2037 24.60 0.0100 0.010 0.010 0 0
P1550 N3391 N3536 31.57 0.0100 0.000 0.250 0 0
P1551 N1035 N2016 2.26 0.0100 0.000 0.000 0 0
P1552 N3082 N3813 6.31 0.0100 0.000 0.010 0 0
P1553 N1370 N4069 2.76 0.0100 0.000 0.000 0 0
P1554 N2356 N1840 45.44 0.0130 0.050 0.000 0 0
P1555 N1577 N2952 64.42 0.0130 0.000 0.020 0 0
P1556 N3129 N2336 50.88 0.0100 0.350 0.010 0 0
P1557 N2500 N1196 29.10 0.0130 0.000 0.020 0 0
P1558 N915 S38 2.50 0.0130 0.000 0.000 0 0
P1559 N390 N19 3.32 0.0100 2.530 0.000 0 0
P1560 N215 N4256 1.08 0.0100 0.000 0.000 0 0
P1561 N2921 N1327 21.63 0.0120 0.000 0.000 0 0
P1562 N477 N1261 6.99 0.0130 0.220 1.560 0 0
P1563 N2221 N1861 7.23 0.0130 0.750 1.760 0 0
P1564 N2297 N616 49.81 0.0100 0.000 0.020 0 0
P1565 N4081 N2515 2.20 0.0100 0.000 0.000 0 0
P1566 N4260 N3163 12.43 0.0130 0.000 0.000 0 0
P1567 N167 N153 14.24 0.0100 0.030 0.150 0 0
P1568 N1040 N406 13.29 0.0130 0.000 0.000 0 0
P1569 N11 N619 12.79 0.0130 0.110 0.000 0 0
P1570 N242 N4068 41.54 0.0100 0.000 1.010 0 0
P1571 N2742 N1479 52.42 0.0130 0.000 0.020 0 0
P1572 N596 N3614 25.40 0.0100 0.000 0.000 0 0
P1573 N1968 N2495 22.83 0.0130 0.000 0.000 0 0
P1574 N656 N3733 12.48 0.0100 0.000 1.020 0 0
P1575 N1349 N843 20.75 0.0130 0.010 0.000 0 0
P1576 N2845 N296 66.18 0.0100 0.000 0.000 0 0
P1577 N1607 N3259 43.50 0.0100 0.000 0.000 0 0
P1578 N1225 N81 13.36 0.0100 0.000 0.000 0 0
P1579 N2474 N1842 6.55 0.0100 0.000 0.000 0 0
P1580 N2944 N113 69.34 0.0130 0.060 0.000 0 0
P1581 N2436 N1250 17.90 0.0100 0.000 0.000 0 0
P1582 N2230 N3448 6.86 0.0100 0.410 0.000 0 0
P1583 N1396 N3883 20.41 0.0130 0.000 0.000 0 0
P1584 N998 N2468 2.59 0.0130 0.000 0.000 0 0
P1585 N563 N2599 1.03 0.0130 0.000 0.000 0 0
P1586 N2357 N1441 20.99 0.0100 0.000 0.010 0 0
P1587 N3494 N2579 67.63 0.0130 0.000 0.100 0 0
P1588 N900 N3673 4.75 0.0100 0.000 0.000 0 0
P1589 N1720 N956 18.66 0.0130 0.000 0.000 0 0
P1590 N849 N1798 23.59 0.0100 0.000 0.210 0 0
P1591 N980 N427 18.51 0.0100 0.000 0.020 0 0
P1592 N1552 N4365 13.14 0.0130 0.000 0.000 0 0
P1593 N758 N1347 2.37 0.0100 0.000 0.000 0 0
P1594 N3776 N3831 32.32 0.0130 0.010 0.000 0 0
P1595 N2377 N3693 18.68 0.0130 0.020 0.000 0 0
P1596 N1173 N532 34.94 0.0100 0.070 0.050 0 0
P1597 N3436 N3592 15.94 0.0130 0.000 0.060 0 0
P1598 N2721 S39 59.69 0.0100 0.350 0.000 0 0
P1599 N4301 N1668 31.94 0.0120 0.000 0.020 0 0
P1600 N668 N3017 8.78 0.0120 0.030 0.000 0 0
P1601 N3332 N3226 47.55 0.0100 0.050 0.040 0 0
P1602 N3122 N3524 43.10 0.0100 0.000 0.350 0 0
P1603 N2242 N1186 20.16 0.0130 0.020 0.000 0 0
P1604 N2461 N2798 13.20 0.0120 0.000 3.760 0 0
P1605 N742 N1392 19.11 0.0100 0.000 0.000 0 0
P1606 N3800 N129 53.55 0.0130 0.000 0.020 0 0
P1607 N2770 N822 32.74 0.0100 0.000 0.000 0 0
P1608 N4094 N3306 46.14 0.0100 1.300 1.110 0 0
P1609 N324 N2188 2.87 0.0100 0.000 0.000 0 0
P1610 N4198 N2427 1.23 0.0130 0.030 0.000 0 0
P1611 N3603 N308 19.54 0.0100 0.000 0.000 0 0
P1612 N236 N615 37.87 0.0130 0.010 0.000 0 0
P1613 N3749 N2398 47.32 0.0130 0.000 0.010 0 0
P1614 N3764 N4101 7.57 0.0100 0.010 1.480 0 0
P1615 N1412 N1106 8.77 0.0130 0.000 0.000 0 0
P1616 N1537 N3454 22.72 0.0130 0.020 0.030 0 0
P1617 N1029 N2825 17.56 0.0130 0.000 0.000 0 0
P1618 N3672 N4133 58.43 0.0100 0.000 0.000 0 0
P1619 N2671 N2190 11.58 0.0130 0.010 0.000 0 0
P1620 N3591 N3343 19.35 0.0120 0.040 0.050 0 0
P1621 N1187 N1631 18.23 0.0100 0.000 1.310 0 0
P1622 N4236 N2921 51.03 0.0120 0.130 0.000 0 0
P1623 N3230 N3082 5.51 0.0100 0.020 0.000 0 0
P1624 N1497 N3124 13.55 0.0100 0.000 0.560 0 0
P1625 N785 N3033 4.46 0.0100 0.040 0.210 0 0
P1626 N2670 N82 19.83 0.0100 0.550 0.000 0 0
P1627 N2462 N1836 2.14 0.0100 0.000 0.000 0 0
P1628 N3416 N642 19.32 0.0130 0.000 0.010 0 0
P1629 N60 N964 6.64 0.0130 0.000 0.000 0 0
P1630 N1608 N1774 32.67 0.0100 0.000 0.020 0 0
P1631 N1977 N2364 11.13 0.0100 0.000 0.010 0 0
P1632 N2788 N947 10.02 0.0100 0.020 0.010 0 0
P1633 N811 N814 37.40 0.0100 0.010 0.040 0 0
P1634 N3895 N908 1.47 0.0130 0.000 0.000 0 0
P1635 N318 N1845 15.76 0.0100 0.000 0.000 0 0
P1636 N1920 N2847 18.13 0.0100 0.020 0.020 0 0
P1637 N3289 N2632 2.90 0.0130 0.000 0.000 0 0
P1638 N1876 N178 13.15 0.0130 0.000 0.000 0 0
P1639 N3644 N3294 19.92 0.0130 0.030 0.000 0 0
P1640 N710 N1229 41.57 0.0130 0.000 0.000 0 0
P1641 N1814 N1682 21.69 0.0130 0.010 0.160 0 0
P1642 N0 N736 34.75 0.0100 0.040 0.080 0 0
P1643 N253 N2110 3.17 0.0100 0.000 0.000 0 0
P1644 N1475 N4025 60.52 0.0130 0.000 0.050 0 0
P1645 N1428 N3785 12.84 0.0120 0.110 0.000 0 0
P1646 N3575 N1278 20.09 0.0100 0.540 0.000 0 0
P1647 N348 N2511 104.54 0.0130 0.000 0.000 0 0
P1648 N862 N3070 29.82 0.0120 0.000 0.000 0 0
P1649 N1947 N1763 10.76 0.0130 0.000 0.000 0 0
P1650 N4284 N3382 13.69 0.0100 0.000 0.000 0 0
P1651 N1860 N2772 19.02 0.0100 0.450 0.000 0 0
P1652 N361 N923 19.80 0.0100 0.000 0.000 0 0
P1653 N901 N469 7.34 0.0100 0.250 0.000 0 0
P1654 N3893 N482 2.16 0.0100 0.000 0.000 0 0
P1655 N2057 N3642 12.76 0.0100 0.000 0.890 0 0
P1656 N2256 N2105 21.65 0.0100 0.000 0.000 0 0
P1657 N2708 N149 93.59 0.0130 0.020 0.000 0 0
P1658 N117 N617 67.38 0.0100 0.000 0.150 0 0
P1659 N876 N4253 14.69 0.0100 0.000 0.000 0 0
P1660 N3478 N2498 51.47 0.0130 0.000 0.010 0 0
P1661 N1740 N181 2.43 0.0160 0.000 0.000 0 0
P1662 N3134 N3845 49.13 0.0130 0.000 0.020 0 0
P1663 N1742 N3341 9.19 0.0130 0.000 0.590 0 0
P1664 N1680 S40 53.99 0.0100 0.000 0.000 0 0
P1665 N1933 N3480 4.54 0.0100 0.010 0.000 0 0
P1666 N1216 N1525 2.06 0.0100 3.590 0.000 0 0
P1667 N3276 N2667 22.20 0.0100 0.000 0.000 0 0
P1668 N1457 N1404 2.00 0.0130 0.000 0.000 0 0
P1669 N1950 N3305 7.58 0.0130 0.000 0.000 0 0
P1670 S41 N653 15.16 0.0100 0.000 0.050 0 0
P1671 N2092 N3089 23.15 0.0130 0.000 0.260 0 0
P1672 S42 N1970 15.82 0.0130 0.000 0.040 0 0
P1673 N2301 N2383 19.04 0.0100 0.000 0.000 0 0
P1674 N1394 N1882 19.91 0.0100 0.020 0.710 0 0
P1675 N1711 N2250 3.67 0.0130 0.000 0.000 0 0
P1676 N3102 N1047 27.68 0.0100 0.000 0.000 0 0
P1677 N4092 N739 9.74 0.0130 0.000 0.000 0 0
P1678 N2549 N1959 3.85 0.0100 0.000 0.110 0 0
P1679 N2196 N2650 33.09 0.0120 0.000 0.020 0 0
P1680 N1910 N2002 18.67 0.0120 0.000 2.190 0 0
P1681 N1242 N3033 12.54 0.0100 0.000 0.210 0 0
P1682 N533 N4181 17.20 0.0130 0.050 0.000 0 0
P1683 N2855 N1873 10.20 0.0100 0.000 0.290 0 0
P1684 N2709 N3037 9.34 0.0130 0.000 0.000 0 0
P1685 N2097 N2794 10.48 0.0120 0.020 1.170 0 0
P1686 N2336 N1002 48.50 0.0100 0.000 0.000 0 0
P1687 N520 N4039 26.56 0.0100 0.010 0.040 0 0
P1688 N3333 N345 5.60 0.0100 0.000 0.000 0 0
P1689 N2463 N1626 16.57 0.0130 0.000 0.000 0 0
P1690 N1869 N4188 8.78 0.0100 0.000 0.000 0 0
P1691 N1312 N3098 20.86 0.0130 0.030 0.000 0 0
P1692 N1253 N342 21.89 0.0100 0.000 0.060 0 0
P1693 N2900 N545 4.67 0.0130 0.000 0.100 0 0
P1694 N692 N279 14.18 0.0130 0.000 0.000 0 0
P1695 N2999 N2200 3.20 0.0130 0.010 0.000 0 0
P1696 N2028 N2426 10.05 0.0100 0.280 0.510 0 0
P1697 N2453 N2072 20.58 0.0120 0.010 0.350 0 0
P1698 N3119 N2911 35.95 0.0100 0.000 0.000 0 0
P1699 N71 N2832 53.39 0.0130 0.070 0.000 0 0
P1700 N3377 S43 76.66 0.0100 0.000 0.000 0 0
P1701 N1182 N1719 22.46 0.0100 0.000 0.000 0 0
P1702 N1461 N3800 10.71 0.0120 0.000 0.810 0 0
P1703 N216 N1027 1.00 0.0100 0.000 0.000 0 0
P1704 N1195 S44 58.50 0.0130 0.000 0.000 0 0
P1705 N2509 N3302 16.43 0.0130 0.010 0.010 0 0
P1706 N2033 N953 7.84 0.0130 0.060 0.000 0 0
P1707 N1509 N88 29.82 0.0130 0.000 0.000 0 0
P1708 N662 N1215 18.74 0.0100 0.000 0.000 0 0
P1709 N1773 N331 5.06 0.0100 0.010 0.020 0 0
P1710 N3048 N827 22.08 0.0130 0.030 0.010 0 0
P1711 N3025 N1423 44.28 0.0130 0.010 0.030 0 0
P1712 N1905 N3419 1.79 0.0100 0.000 0.000 0 0
P1713 N2706 N3292 2.49 0.0100 0.000 0.000 0 0
P1714 N4015 N3185 6.51 0.0130 0.020 2.150 0 0
P1715 N3283 S45 14.26 0.0100 0.000 0.590 0 0
P1716 N2291 N2568 24.62 0.0130 0.000 0.000 0 0
P1717 N2636 N1687 10.29 0.0100 0.000 0.000 0 0
P1718 N224 N3432 104.06 0.0130 0.000 0.000 0 0
P1719 N968 N3934 43.01 0.0120 0.000 0.040 0 0
P1720 N3668 N537 39.32 0.0100 0.000 0.000 0 0
P1721 N2929 N1727 4.63 0.0100 0.000 2.960 0 0
P1722 N1458 N1262 3.17 0.0100 0.000 0.000 0 0
P1723 N3158 N4291 36.08 0.0130 0.000 0.000 0 0
P1724 N369 N1112 16.80 0.0130 0.000 0.000 0 0
P1725 N3915 N2544 2.33 0.0100 0.000 0.000 0 0
P1726 N451 N2153 9.28 0.0130 0.000 0.140 0 0
P1727 N2559 N2705 16.81 0.0100 0.000 0.000 0 0
P1728 N395 N1586 36.29 0.0100 0.030 0.000 0 0
P1729 N2197 N2302 17.57 0.0130 0.000 0.000 0 0
P1730 N376 N621 23.76 0.0130 0.000 0.000 0 0
P1731 N3952 N4259 20.04 0.0130 0.010 0.010 0 0
P1732 N1328 N1332 19.60 0.0100 0.000 0.020 0 0
P1733 N2123 N4134 13.95 0.0100 0.000 0.010 0 0
P1734 N361 N2783 24.49 0.0100 0.000 0.030 0 0
P1735 N2158 N2567 3.21 0.0130 0.010 0.000 0 0
P1736 N3814 N4325 4.61 0.0100 0.000 0.000 0 0
P1737 N1422 N1200 10.47 0.0100 0.030 0.000 0 0
P1738 N2320 N3323 24.51 0.0130 0.010 0.000 0 0
P1739 N4098 N2950 20.72 0.0100 0.000 0.010 0 0
P1740 N1100 N695 20.06 0.0130 0.000 0.000 0 0
P1741 N1822 N2089 26.32 0.0130 0.000 0.000 0 0
P1742 N1357 N980 4.26 0.0100 0.000 0.160 0 0
P1743 N2391 N779 21.51 0.0100 0.010 0.000 0 0
P1744 N1179 N661 36.70 0.0130 0.000 0.390 0 0
P1745 N2565 N3074 19.84 0.0100 0.000 0.130 0 0
P1746 N1690 N3450 44.70 0.0100 0.000 0.200 0 0
P1747 N1409 N1534 23.53 0.0130 0.000 0.390 0 0
P1748 N843 N367 17.61 0.0130 0.010 0.010 0 0
P1749 N187 N1750 14.62 0.0130 0.000 0.000 0 0
P1750 N377 N1809 7.23 0.0100 0.000 0.000 0 0
P1751 N3303 N2052 20.30 0.0130 0.000 0.000 0 0
P1752 N306 N1182 24.51 0.0130 0.010 0.040 0 0
P1753 N2041 N214 4.79 0.0130 0.000 0.120 0 0
P1754 N308 N1910 22.13 0.0130 0.040 0.300 0 0
P1755 N2723 N1735 22.43 0.0130 0.000 0.020 0 0
P1756 N934 N109 20.01 0.0100 0.000 0.000 0 0
P1757 N3581 N328 66.96 0.0100 0.010 0.000 0 0
P1758 N3302 N4089 23.50 0.0130 0.000 0.000 0 0
P1759 N272 N2574 34.37 0.0130 0.000 0.000 0 0
P1760 N410 N188 19.09 0.0100 0.000 0.000 0 0
P1761 N3363 N800 1.90 0.0160 0.000 0.000 0 0
P1762 N3060 N420 12.13 0.0100 0.000 0.000 0 0
P1763 N243 N1391 13.31 0.0100 0.000 0.000 0 0
P1764 N2308 N2546 2.40 0.0100 0.000 0.000 0 0
P1765 N1955 N2987 15.26 0.0130 0.010 0.000 0 0
P1766 N2996 N2488 18.62 0.0120 0.000 0.000 0 0
P1767 N3 N323 24.55 0.0100 0.000 0.000 0 0
P1768 N37 N3693 5.82 0.0130 0.000 0.020 0 0
P1769 N1175 N171 5.37 0.0130 0.020 0.000 0 0
P1770 N1264 N1518 10.16 0.0100 0.030 0.080 0 0
P1771 N3820 N2240 5.48 0.0130 0.000 0.000 0 0
P1772 N2563 N1090 58.16 0.0130 0.030 0.000 0 0
P1773 N2794 N2106 83.44 0.0130 0.000 0.000 0 0
P1774 N2213 N2575 3.22 0.0160 0.000 2.070 0 0
P1775 N2459 N494 3.81 0.0120 0.000 0.270 0 0
P1776 N2399 N1937 17.95 0.0130 0.000 0.470 0 0
P1777 N2717 N2774 4.10 0.0120 0.030 0.000 0 0
P1778 N2068 N3595 8.95 0.0100 0.000 0.050 0 0
P1779 N330 N425 39.76 0.0120 0.000 0.000 0 0
P1780 N2397 N569 11.29 0.0100 0.000 0.000 0 0
P1781 N818 N2780 2.14 0.0100 0.000 0.000 0 0
P1782 N3665 N2956 32.85 0.0100 0.010 0.020 0 0
P1783 N462 N3434 18.42 0.0100 0.000 0.000 0 0
P1784 N1775 N4064 17.61 0.0130 0.000 0.060 0 0
P1785 N3086 N767 13.03 0.0100 0.030 0.100 0 0
P1786 N305 N1755 17.33 0.0130 0.020 0.020 0 0
P1787 N2637 N1795 15.24 0.0130 2.470 0.000 0 0
P1788 N4350 N397 17.73 0.0120 0.000 2.100 0 0
P1789 N220 N401 10.95 0.0100 0.000 0.020 0 0
P1790 N3969 N339 19.64 0.0120 0.030 0.000 0 0
P1791 N1321 N3574 10.95 0.0100 0.000 0.020 0 0
P1792 N1341 N4023 3.17 0.0100 0.000 0.000 0 0
P1793 N1918 N2602 20.28 0.0130 0.010 0.040 0 0
P1794 N243 N2643 13.14 0.0100 0.040 0.010 0 0
P1795 N697 N4065 10.71 0.0100 0.000 0.940 0 0
P1796 N390 N1653 10.82 0.0130 0.000 0.010 0 0
P1797 N1570 N1394 20.27 0.0100 0.000 0.000 0 0
P1798 N2421 N2206 22.45 0.0130 0.010 0.010 0 0
P1799 N3632 N727 21.50 0.0100 0.000 0.000 0 0
P1800 N2975 N666 22.90 0.0130 0.080 0.000 0 0
P1801 N196 N2920 4.17 0.0100 0.000 0.010 0 0
P1802 N2896 N2940 5.76 0.0100 0.000 1.610 0 0
P1803 N600 N1880 17.01 0.0100 0.010 0.000 0 0
P1804 N2059 N3886 3.10 0.0100 0.200 0.000 0 0
P1805 N2022 N374 52.36 0.0120 0.000 0.000 0 0
P1806 N2369 N3707 20.59 0.0120 0.000 0.000 0 0
P1807 N2403 N3151 48.19 0.0130 0.030 0.000 0 0
P1808 N4216 N3243 19.11 0.0100 0.000 0.450 0 0
P1809 N39 N1518 25.32 0.0130 0.020 0.110 0 0
P1810 N80 N1327 7.72 0.0130 0.000 1.660 0 0
P1811 N1102 N3587 22.15 0.0120 0.000 0.000 0 0
P1812 N767 N3920 18.05 0.0130 0.000 0.070 0 0
P1813 N4002 N1003 2.57 0.0100 0.000 0.000 0 0
P1814 N121 N3405 15.09 0.0100 0.000 0.010 0 0
P1815 N1485 N2371 14.52 0.0130 0.000 0.000 0 0
P1816 N1972 N2342 17.35 0.0120 0.000 0.020 0 0
P1817 N1936 N3089 25.95 0.0120 0.000 0.240 0 0
P1818 N1830 N519 37.20 0.0100 0.000 0.000 0 0
P1819 N3236 N3353 3.27 0.0120 0.000 0.120 0 0
P1820 N2972 N1328 20.09 0.0100 0.010 0.000 0 0
P1821 N3373 N48 14.68 0.0130 0.020 0.100 0 0
P1822 N565 N1082 1.12 0.0130 0.000 0.000 0 0
P1823 N3398 N1533 11.22 0.0130 0.000 0.010 0 0
P1824 N1714 N1365 50.64 0.0120 0.000 0.000 0 0
P1825 N2244 N4294 28.09 0.0130 0.000 0.020 0 0
P1826 N2666 N1464 26.05 0.0130 0.020 0.020 0 0
P1827 N2000 N3229 12.88 0.0130 0.020 0.000 0 0
P1828 N634 N3526 2.39 0.0130 0.000 0.000 0 0
P1829 N396 N593 40.56 0.0100 1.010 0.840 0 0
P1830 N1416 N4179 4.24 0.0100 0.000 0.280 0 0
P1831 N3633 N1904 15.13 0.0130 0.220 0.030 0 0
P1832 N4270 N24 18.34 0.0100 0.000 0.000 0 0
P1833 S46 N3066 18.06 0.0100 0.000 0.000 0 0
P1834 N2349 N2441 21.22 0.0100 0.000 0.230 0 0
P1835 N3494 S47 64.91 0.0130 1.960 1.910 0 0
P1836 N4213 N620 19.29 0.0100 0.000 0.020 0 0
P1837 N2958 N2125 23.96 0.0120 0.000 0.000 0 0
P1838 N2140 N990 6.71 0.0100 1.960 0.000 0 0
P1839 N112 N2718 11.61 0.0130 0.060 0.000 0 0
P1840 N3708 N2302 8.48 0.0100 0.000 0.260 0 0
P1841 N936 N1110 4.42 0.0100 0.000 0.080 0 0
P1842 N2388 N3318 2.08 0.0100 0.000 0.000 0 0
P1843 N3246 N1665 22.83 0.0130 0.000 0.020 0 0
P1844 N1531 N2640 15.99 0.0130 0.000 0.000 0 0
P1845 N921 N2458 18.28 0.0130 0.010 0.000 0 0
P1846 N499 N643 14.65 0.0130 0.000 0.000 0 0
P1847 N663 N3616 79.20 0.0130 0.000 0.020 0 0
P1848 N2841 N2124 12.78 0.0100 0.000 1.000 0 0
P1849 N3399 N1155 16.54 0.0100 0.000 0.000 0 0
P1850 N1106 N1896 9.45 0.0130 0.000 0.020 0 0
P1851 N2926 N1138 17.23 0.0100 0.010 0.000 0 0
P1852 N821 N3513 18.05 0.0120 0.000 0.040 0 0
P1853 N3017 N1553 21.07 0.0120 0.010 0.000 0 0
P1854 N1111 N1797 2.35 0.0100 0.000 0.000 0 0
P1855 N3542 N1237 2.81 0.0100 0.000 0.000 0 0
P1856 N1466 N372 19.98 0.0100 0.000 0.000 0 0
P1857 N3166 N3486 10.00 0.0100 0.000 1.020 0 0
P1858 N2394 N660 22.21 0.0130 0.000 0.000 0 0
P1859 N3592 N2883 21.17 0.0130 0.000 0.000 0 0
P1860 N2235 N3442 9.71 0.0130 0.000 0.000 0 0
P1861 N1631 N830 14.17 0.0130 0.000 2.660 0 0
P1862 N1590 N1069 22.13 0.0120 0.000 0.000 0 0
P1863 N2476 N3572 26.55 0.0130 0.000 0.150 0 0
P1864 N3916 N771 69.51 0.0100 0.000 0.000 0 0
P1865 N3571 N2674 50.70 0.0100 0.000 0.000 0 0
P1866 N3946 S48 14.20 0.0130 0.040 0.000 0 0
P1867 N1738 N2967 14.03 0.0100 0.030 0.000 0 0
P1868 N4093 N1927 2.62 0.0100 0.000 0.000 0 0
P1869 N347 N659 19.65 0.0130 0.100 0.000 0 0
P1870 N3141 N1226 3.53 0.0100 0.000 0.000 0 0
P1871 N2519 N3675 32.94 0.0100 0.000 0.150 0 0
P1872 N3666 N1364 14.25 0.0130 0.110 0.000 0 0
P1873 N1883 N3903 13.86 0.0100 0.000 0.000 0 0
P1874 N4365 N2205 10.29 0.0130 0.010 0.000 0 0
P1875 N2173 N241 1.55 0.0100 0.000 0.690 0 0
P1876 N2107 N4298 22.11 0.0130 0.010 0.010 0 0
P1877 N3796 N90 16.08 0.0130 0.000 0.010 0 0
P1878 S49 N332 54.54 0.0130 0.000 0.000 0 0
P1879 N2617 N2957 61.51 0.0100 1.140 1.260 0 0
P1880 N3775 N4309 8.69 0.0100 0.000 0.010 0 0
P1881 N64 N3152 10.45 0.0100 0.000 0.000 0 0
P1882 N2238 N1159 25.20 0.0100 0.000 0.010 0 0
P1883 N110 N2861 2.64 0.0100 0.000 0.000 0 0
P1884 N4299 N211 3.95 0.0100 0.000 0.260 0 0
P1885 N275 N3335 11.69 0.0100 0.000 0.000 0 0
P1886 N1135 N2556 2.69 0.0100 0.000 0.000 0 0
P1887 N3173 N2322 23.88 0.0100 0.000 0.010 0 0
P1888 N2980 N1720 3.34 0.0130 0.000 0.990 0 0
P1889 N4229 N976 17.15 0.0100 0.000 0.000 0 0
P1890 N50 N258 16.49 0.0100 0.570 0.000 0 0
P1891 N4303 N4152 4.05 0.0130 0.000 0.000 0 0
P1892 N2658 N3196 17.72 0.0130 0.000 0.870 0 0
P1893 N4047 N3621 19.43 0.0130 0.000 0.030 0 0
P1894 N2132 N2920 16.29 0.0100 0.020 0.110 0 0
P1895 N3194 N3495 44.59 0.0130 0.000 0.000 0 0
P1896 N131 N3601 12.43 0.0100 0.000 0.200 0 0
P1897 N807 N4307 53.82 0.0120 0.000 0.000 0 0
P1898 N3753 N2817 51.29 0.0100 0.020 0.000 0 0
P1899 N209 N690 46.20 0.0130 0.000 0.050 0 0
P1900 N1326 N1462 10.41 0.0100 0.030 0.020 0 0
P1901 N3939 N4334 11.64 0.0130 0.120 0.000 0 0
P1902 N1472 N2570 20.35 0.0130 0.000 0.000 0 0
P1903 N4191 N735 14.92 0.0130 0.020 0.000 0 0
P1904 N2664 N1422 65.64 0.0130 0.000 0.000 0 0
P1905 N2628 N658 15.46 0.0130 0.050 0.000 0 0
P1906 N3246 N2160 19.17 0.0130 0.020 0.230 0 0
P1907 N901 N2261 32.00 0.0100 0.250 0.000 0 0
P1908 N395 N973 24.97 0.0100 0.000 0.020 0 0
P1909 N484 N1655 12.50 0.0130 0.000 0.000 0 0
P1910 N1140 N1317 18.29 0.0120 0.100 0.000 0 0
P1911 N3852 N3508 3.92 0.0100 0.000 0.000 0 0
P1912 N3950 N2945 19.56 0.0130 0.040 0.020 0 0
P1913 N3618 N971 24.71 0.0100 0.000 0.000 0 0
P1914 N2353 N2283 21.33 0.0130 0.010 0.010 0 0
P1915 N539 N3595 11.94 0.0100 0.000 0.000 0 0
P1916 N398 N2938 60.36 0.0130 0.060 0.010 0 0
P1917 N2540 N1247 22.47 0.0110 0.020 0.000 0 0
P1918 N3786 N2804 2.45 0.0130 0.000 0.000 0 0
P1919 N916 N3078 51.42 0.0130 0.000 0.020 0 0
P1920 N1758 N2062 34.12 0.0120 0.000 0.000 0 0
P1921 N597 N4361 14.81 0.0100 0.000 0.000 0 0
P1922 N4325 N2178 29.98 0.0100 0.020 0.000 0 0
P1923 N3760 N2938 12.46 0.0130 0.020 1.910 0 0
P1924 N485 N256 24.45 0.0130 0.010 0.000 0 0
P1925 N3036 N1878 5.13 0.0100 0.000 0.000 0 0
P1926 N2407 N1973 20.01 0.0130 0.000 0.000 0 0
P1927 N3380 N710 56.72 0.0130 0.020 0.020 0 0
P1928 N661 N2669 16.69 0.0130 0.000 0.040 0 0
P1929 N4096 N2143 30.66 0.0130 0.000 0.030 0 0
P1930 N1075 N1162 8.16 0.0130 0.000 0.040 0 0
P1931 N2206 N84 37.00 0.0130 0.000 0.010 0 0
P1932 N3343 S50 16.85 0.0120 0.010 0.000 0 0
P1933 N2512 N3398 19.40 0.0130 0.000 0.020 0 0
P1934 N3896 N4161 7.69 0.0100 0.000 0.000 0 0
P1935 N2927 N3451 31.10 0.0130 0.000 0.010 0 0
P1936 N4193 N2551 14.71 0.0130 0.020 0.000 0 0
P1937 N3697 N4025 17.71 0.0130 0.000 0.000 0 0
P1938 N3694 N3590 60.48 0.0130 0.040 0.030 0 0
P1939 S51 N791 50.07 0.0100 0.000 1.530 0 0
P1940 N3491 N3574 1.99 0.0100 0.000 0.000 0 0
P1941 N474 N3733 18.34 0.0120 0.000 0.000 0 0
P1942 N3771 N2208 29.52 0.0130 0.000 0.000 0 0
P1943 N4135 N2798 81.13 0.0130 0.000 1.060 0 0
P1944 N3641 N3606 21.51 0.0130 0.140 0.010 0 0
P1945 N3859 N157 12.32 0.0100 0.010 0.030 0 0
P1946 N1666 N3824 1.00 0.0100 0.620 0.210 0 0
P1947 N1961 N483 21.59 0.0130 0.010 0.000 0 0
P1948 N1864 N3156 15.88 0.0130 0.000 0.000 0 0
P1949 N1139 N1987 36.02 0.0130 0.000 0.000 0 0
P1950 N149 N176 98.94 0.0130 0.000 0.000 0 0
P1951 N2975 N564 27.98 0.0130 0.000 0.000 0 0
P1952 N2296 N1407 5.42 0.0100 0.000 1.480 0 0
P1953 N1304 N4362 15.93 0.0100 0.000 0.010 0 0
P1954 N3331 N383 8.01 0.0100 0.000 0.010 0 0
P1955 N715 N3582 21.02 0.0100 0.000 0.000 0 0
P1956 N331 N680 18.95 0.0100 0.030 0.000 0 0
P1957 N1573 N3279 1.68 0.0100 0.000 0.000 0 0
P1958 N2435 N1798 38.69 0.0100 0.760 0.000 0 0
P1959 N1258 N990 9.10 0.0100 0.000 0.000 0 0
P1960 N4179 N2384 15.77 0.0100 0.000 0.060 0 0
P1961 N1036 N1146 15.52 0.0100 0.040 0.010 0 0
P1962 N595 N806 50.12 0.0100 0.150 0.400 0 0
P1963 N1505 N551 7.90 0.0130 0.000 0.100 0 0
P1964 N343 N2194 11.57 0.0100 0.050 0.000 0 0
P1965 N3045 N27 3.28 0.0100 0.000 0.000 0 0
P1966 N3125 S45 49.28 0.0130 0.000 0.000 0 0
P1967 N2480 N583 25.20 0.0100 0.200 0.000 0 0
P1968 N1489 N4129 9.60 0.0100 0.000 0.060 0 0
P1969 N1845 N163 16.37 0.0100 0.000 0.020 0 0
P1970 N530 N2998 11.42 0.0100 0.850 1.280 0 0
P1971 N1566 N3299 25.32 0.0100 0.000 0.000 0 0
P1972 N3056 N383 13.83 0.0100 0.000 0.520 0 0
P1973 N2352 N319 21.17 0.0120 0.000 0.000 0 0
P1974 N2952 N4198 18.08 0.0120 0.000 0.580 0 0
P1975 N847 N131 28.30 0.0130 0.000 0.000 0 0
P1976 N297 N1715 2.48 0.0120 0.000 0.060 0 0
P1977 N300 N3280 22.12 0.0130 0.010 0.000 0 0
P1978 N293 N1330 22.21 0.0130 0.000 0.000 0 0
P1979 N3060 N734 14.45 0.0100 0.000 0.700 0 0
P1980 N773 N2406 17.57 0.0130 0.030 0.000 0 0
P1981 N1201 N441 15.14 0.0120 0.000 0.000 0 0
P1982 N2192 N2041 9.89 0.0130 0.000 0.030 0 0
P1983 N3491 N2549 27.50 0.0160 0.000 0.000 0 0
P1984 N613 N3664 9.75 0.0100 0.100 0.040 0 0
P1985 N999 N761 22.13 0.0100 0.000 0.010 0 0
P1986 N1947 N2912 16.07 0.0130 0.060 0.000 0 0
P1987 N3090 N1197 19.35 0.0130 0.010 0.010 0 0
P1988 N535 N175 9.85 0.0130 0.010 0.020 0 0
P1989 N1334 N2957 35.49 0.0130 0.000 0.000 0 0
P1990 N1188 N3780 1.00 0.0100 0.000 0.000 0 0
P1991 N4043 N4296 1.97 0.0120 0.000 0.000 0 0
P1992 N2503 N4236 8.02 0.0120 0.000 0.770 0 0
P1993 N3953 N3326 1.83 0.0130 0.000 0.000 0 0
P1994 N2513 N3701 16.27 0.0130 0.000 0.580 0 0
P1995 N3094 N1372 15.68 0.0130 0.020 0.000 0 0
P1996 N3422 N2266 7.24 0.0100 0.400 0.000 0 0
P1997 N3202 N2231 51.50 0.0100 0.000 0.000 0 0
P1998 N4257 N3529 40.91 0.0100 0.060 0.030 0 0
P1999 N1943 N2076 40.12 0.0100 0.330 0.000 0 0
P2000 N1607 N247 11.66 0.0100 0.020 0.000 0 0
P2001 N1024 N1603 14.34 0.0100 1.180 0.000 0 0
P2002 N3093 N1848 18.76 0.0130 0.000 0.000 0 0
P2003 N1774 N1923 26.20 0.0100 0.000 0.000 0 0
P2004 N3625 N369 17.47 0.0130 0.000 0.010 0 0
P2005 N2298 N832 16.83 0.0130 0.060 0.010 0 0
P2006 N165 N1068 18.09 0.0100 0.000 0.040 0 0
P2007 N277 N1623 4.16 0.0100 0.000 0.250 0 0
P2008 N2843 N650 2.61 0.0130 0.000 0.000 0 0
P2009 N4362 N3226 3.59 0.0100 0.200 0.030 0 0
P2010 N1535 N1503 5.50 0.0130 0.000 0.020 0 0
P2011 N4318 N1492 4.10 0.0130 0.000 0.110 0 0
P2012 N3712 N2988 19.88 0.0130 0.000 0.020 0 0
P2013 N627 N2895 2.76 0.0100 0.000 0.000 0 0
P2014 N1793 N2081 2.42 0.0100 0.000 0.000 0 0
P2015 N233 N3674 6.12 0.0100 0.030 2.770 0 0
P2016 N1973 N477 16.28 0.0130 0.010 0.310 0 0
P2017 N1828 N2176 18.97 0.0100 0.010 0.010 0 0
P2018 N2230 N2318 5.37 0.0100 0.390 0.000 0 0
P2019 N3383 N4189 17.80 0.0100 0.000 0.000 0 0
P2020 N3524 N4268 12.34 0.0100 0.000 0.310 0 0
P2021 N1747 N1586 43.93 0.0100 0.060 0.010 0 0
P2022 N1620 N2552 41.44 0.0100 0.000 0.000 0 0
P2023 N4148 N1948 16.27 0.0100 0.000 0.000 0 0
P2024 N1819 N3450 23.15 0.0130 0.030 0.000 0 0
P2025 N105 N384 22.88 0.0120 0.000 0.000 0 0
P2026 N4117 N867 19.58 0.0130 0.000 0.000 0 0
P2027 N3625 N696 23.65 0.0130 0.000 0.030 0 0
P2028 N4163 N65 11.96 0.0130 0.000 0.000 0 0
P2029 N3423 N3937 25.59 0.0100 0.000 0.030 0 0
P2030 N948 N121 13.64 0.0100 0.020 0.000 0 0
P2031 N3882 N67 26.43 0.0100 0.010 0.060 0 0
P2032 N3015 N4220 1.37 0.0100 0.000 0.000 0 0
P2033 N2922 N3070 6.85 0.0100 0.000 0.400 0 0
P2034 N1900 N4280 14.10 0.0130 0.000 0.040 0 0
P2035 N4280 N4007 23.28 0.0100 0.000 0.000 0 0
P2036 N3073 N3530 10.65 0.0100 0.000 0.240 0 0
P2037 N3107 N792 3.22 0.0100 0.000 0.230 0 0
P2038 N32 N4148 13.82 0.0100 0.000 0.000 0 0
P2039 N3998 N467 27.79 0.0100 0.000 0.000 0 0
P2040 S52 N3444 15.37 0.0100 0.000 0.000 0 0
P2041 N2056 N1884 25.05 0.0130 0.010 0.000 0 0
P2042 N4309 N3921 15.73 0.0130 0.000 0.020 0 0
P2043 N2445 N3287 37.09 0.0100 0.000 0.000 0 0
P2044 N446 N754 1.00 0.0160 0.000 0.000 0 0
P2045 N804 N2290 27.48 0.0100 0.000 0.000 0 0
P2046 N2834 N2277 2.48 0.0130 0.000 0.000 0 0
P2047 N2916 N1030 19.63 0.0130 0.000 0.000 0 0
P2048 N3674 N3677 16.90 0.0100 2.950 0.050 0 0
P2049 N35 N1787 4.72 0.0120 0.000 2.540 0 0
P2050 N3959 N3863 49.09 0.0130 0.090 0.000 0 0
P2051 N1978 N2378 2.45 0.0100 0.000 0.000 0 0
P2052 N3475 N1968 14.06 0.0100 0.000 0.020 0 0
P2053 N2953 N1165 2.45 0.0100 0.000 0.000 0 0
P2054 N2514 N2718 28.31 0.0130 0.030 0.140 0 0
P2055 N439 N2486 21.55 0.0100 0.000 0.000 0 0
P2056 N1482 N3250 4.33 0.0100 0.580 0.000 0 0
P2057 N214 N2568 43.74 0.0130 0.070 0.010 0 0
P2058 N189 N2955 9.84 0.0100 0.000 0.000 0 0
P2059 N2005 N1040 16.72 0.0130 0.000 0.000 0 0
P2060 N603 N3306 42.26 0.0100 1.140 1.070 0 0
P2061 N655 N3956 23.66 0.0130 0.000 0.000 0 0
P2062 N975 N1758 12.30 0.0130 0.010 0.000 0 0
P2063 N3562 N3379 33.58 0.0100 0.000 0.000 0 0
P2064 N2691 N3956 5.22 0.0130 0.690 0.790 0 0
P2065 N832 N3230 31.40 0.0130 0.000 0.000 0 0
P2066 N555 N396 48.32 0.0100 0.000 0.930 0 0
P2067 N604 N2065 20.66 0.0100 0.000 0.000 0 0
P2068 N51 N3434 23.87 0.0100 0.090 0.010 0 0
P2069 N34 N3055 4.73 0.0160 0.000 0.000 0 0
P2070 N2970 N250 27.67 0.0100 0.000 0.050 0 0
P2071 N3418 N2296 20.85 0.0100 0.010 0.020 0 0
P2072 N2837 N4144 21.54 0.0100 0.000 0.060 0 0
P2073 N1196 N1588 23.38 0.0100 0.000 0.210 0 0
P2074 N1455 N4118 34.52 0.0100 0.000 0.230 0 0
P2075 N1866 N1714 4.16 0.0100 0.000 0.360 0 0
P2076 N200 N3189 7.05 0.0100 0.020 0.000 0 0
P2077 N3278 N1590 24.37 0.0120 0.000 0.010 0 0
P2078 N785 N3078 3.39 0.0100 0.000 3.620 0 0
P2079 N792 N1694 62.31 0.0130 0.000 0.610 0 0
P2080 N461 N1936 21.75 0.0120 0.000 0.000 0 0
P2081 N4354 N2342 6.98 0.0120 0.260 0.000 0 0
P2082 N1824 N497 19.47 0.0100 0.030 0.010 0 0
P2083 N3214 N943 30.40 0.0130 0.000 0.020 0 0
P2084 N1471 N2469 13.19 0.0100 0.000 0.000 0 0
P2085 N2693 S53 52.18 0.0100 0.000 0.000 0 0
P2086 N3903 N3781 17.42 0.0100 0.000 0.000 0 0
P2087 N111 N4147 37.56 0.0100 0.000 0.000 0 0
P2088 N1949 N3959 3.01 0.0120 0.000 0.160 0 0
P2089 N625 N996 15.57 0.0130 0.020 0.000 0 0
P2090 N1592 N1157 40.85 0.0130 0.000 0.000 0 0
P2091 N1974 N1063 14.41 0.0130 0.000 0.330 0 0
P2092 N4185 N4193 23.21 0.0100 0.000 2.290 0 0
P2093 N3005 N100 12.19 0.0100 0.010 0.020 0 0
P2094 N2306 N2842 4.25 0.0100 0.590 0.000 0 0
P2095 N68 N2123 53.92 0.0100 0.000 0.640 0 0
P2096 N2516 N202 4.82 0.0130 0.000 0.080 0 0
P2097 N2650 N268 19.78 0.0120 0.120 0.020 0 0
P2098 N3867 N2576 21.16 0.0100 0.000 0.000 0 0
P2099 N4217 N1485 19.29 0.0130 0.000 0.020 0 0
P2100 N404 N4210 6.92 0.0100 0.060 0.000 0 0
P2101 N2153 N907 17.86 0.0120 0.000 0.000 0 0
P2102 N2498 N911 15.01 0.0130 0.000 0.290 0 0
P2103 N3904 N2992 20.80 0.0130 0.000 0.000 0 0
P2104 N2382 N3708 17.49 0.0100 0.010 0.320 0 0
P2105 N1132 N3865 43.51 0.0100 0.000 0.900 0 0
P2106 N551 N2152 24.61 0.0130 0.030 0.000 0 0
P2107 N1498 N3938 3.55 0.0100 0.000 0.000 0 0
P2108 N3384 N2142 10.30 0.0120 0.000 0.000 0 0
P2109 S54 N3101 7.08 0.0100 0.000 0.000 0 0
P2110 N2109 N3171 10.17 0.0120 0.980 0.570 0 0
P2111 N712 N3815 2.89 0.0100 0.000 0.000 0 0
P2112 N2763 N1870 45.61 0.0130 0.000 0.020 0 0
P2113 N3447 N1672 2.46 0.0100 0.000 0.000 0 0
P2114 N1114 N1613 19.65 0.0110 0.050 0.000 0 0
P2115 N2881 N415 20.80 0.0130 0.000 0.000 0 0
P2116 N3843 N479 7.10 0.0100 0.430 0.000 0 0
P2117 N2136 N1114 14.89 0.0100 0.000 0.070 0 0
P2118 N3264 N2988 15.28 0.0130 0.040 0.000 0 0
P2119 N2021 N2733 24.81 0.0100 0.000 0.000 0 0
P2120 N1134 N580 20.28 0.0130 0.000 0.000 0 0
P2121 N3640 N1505 15.53 0.0100 0.000 0.130 0 0
P2122 N241 N3804 14.88 0.0120 0.010 0.010 0 0
P2123 N2464 N1091 50.31 0.0130 0.000 0.020 0 0
P2124 N3927 N2151 18.80 0.0100 0.000 0.030 0 0
P2125 N2366 S55 16.73 0.0120 0.000 0.000 0 0
P2126 N321 N1140 17.31 0.0120 0.000 0.000 0 0
P2127 N2941 N2715 2.30 0.0100 0.000 0.000 0 0
P2128 N3954 N4354 6.63 0.0130 0.040 0.000 0 0
P2129 N1557 N4181 13.83 0.0130 0.010 0.010 0 0
P2130 N2796 N704 2.41 0.0130 0.000 0.000 0 0
P2131 N3199 N742 4.01 0.0120 0.000 0.200 0 0
P2132 N3933 N3717 24.28 0.0100 0.000 0.000 0 0
P2133 N2661 N2828 10.44 0.0130 0.000 0.030 0 0
P2134 N912 N2660 54.22 0.0100 0.000 0.870 0 0
P2135 N3374 N4149 4.74 0.0130 0.000 0.170 0 0
P2136 N1821 N2934 19.97 0.0100 0.010 0.000 0 0
P2137 N3900 N765 22.87 0.0130 0.000 0.000 0 0
P2138 N2236 N381 4.84 0.0100 0.000 0.370 0 0
P2139 N4096 N4245 26.57 0.0130 0.010 0.000 0 0
P2140 N3746 N1346 8.22 0.0100 0.060 0.020 0 0
P2141 N3557 N2607 3.76 0.0100 0.000 0.000 0 0
P2142 N1663 N3978 22.97 0.0130 0.010 0.000 0 0
P2143 N4261 N1832 2.67 0.0100 0.000 0.000 0 0
P2144 N639 N855 19.71 0.0100 0.000 0.000 0 0
P2145 N3601 N14 50.53 0.0100 0.000 1.020 0 0
P2146 N2486 N2958 4.97 0.0100 0.000 0.680 0 0
P2147 N2882 N2152 65.55 0.0130 0.000 0.010 0 0
P2148 N2806 N1128 30.46 0.0130 0.030 0.000 0 0
P2149 N532 N2153 38.16 0.0120 0.000 0.060 0 0
P2150 N3816 N1799 36.63 0.0130 0.030 0.010 0 0
P2151 N3475 N558 12.50 0.0100 0.010 0.000 0 0
P2152 N1126 N440 23.60 0.0100 0.000 0.010 0 0
P2153 N708 N2981 18.03 0.0130 0.010 0.010 0 0
P2154 N2511 N3637 111.60 0.0130 0.000 1.600 0 0
P2155 N3160 N3036 103.56 0.0160 0.080 0.210 0 0
P2156 N4268 N811 13.04 0.0100 0.000 0.010 0 0
P2157 N1686 N1216 15.48 0.0130 0.000 3.070 0 0
P2158 N3425 N3750 47.95 0.0100 0.000 0.350 0 0
P2159 N1173 S32 48.74 0.0100 1.250 0.980 0 0
P2160 N2558 N1989 30.04 0.0130 0.010 0.000 0 0
P2161 N1496 N4341 24.30 0.0130 0.020 0.030 0 0
P2162 N2328 N3064 35.84 0.0100 0.810 0.000 0 0
P2163 N1452 N1130 16.92 0.0130 0.010 0.000 0 0
P2164 N3007 N2968 21.84 0.0100 0.010 0.640 0 0
P2165 N4362 N3377 3.90 0.0100 0.220 0.200 0 0
P2166 N1109 N4 37.91 0.0100 0.000 0.070 0 0
P2167 N2562 N4140 29.02 0.0100 0.000 0.030 0 0
P2168 N632 N3858 23.24 0.0100 0.010 0.010 0 0
P2169 N3899 N158 2.87 0.0100 0.000 0.000 0 0
P2170 N1975 N4037 16.79 0.0100 0.000 0.000 0 0
P2171 N1616 N1160 19.05 0.0120 0.000 0.210 0 0
P2172 N454 N558 10.15 0.0100 0.000 0.010 0 0
P2173 N3830 N232 26.49 0.0100 0.000 0.000 0 0
P2174 N3688 N862 5.84 0.0100 0.000 0.420 0 0
P2175 N390 N3906 23.61 0.0130 0.000 0.000 0 0
P2176 N1937 N3998 6.30 0.0120 0.000 0.000 0 0
P2177 N1470 N2640 18.51 0.0130 0.000 0.020 0 0
P2178 N3143 N564 39.08 0.0100 0.010 0.190 0 0
P2179 N4115 N3435 4.18 0.0100 0.000 0.840 0 0
P2180 N3565 N3059 9.66 0.0100 0.000 0.000 0 0
P2181 N2784 N2765 20.65 0.0130 0.000 0.010 0 0
P2182 N4114 N2068 22.28 0.0100 0.000 0.000 0 0
P2183 N4094 N3306 46.14 0.0130 0.000 0.000 0 0
P2184 N3483 N320 17.17 0.0100 0.400 0.000 0 0
P2185 N1531 N1264 15.69 0.0130 0.000 0.000 0 0
P2186 N2216 N1873 10.10 0.0100 0.010 0.000 0 0
P2187 N2106 N772 86.05 0.0130 0.000 0.000 0 0
P2188 N668 N2151 11.48 0.0100 0.000 0.000 0 0
P2189 N2100 N3632 14.17 0.0130 0.000 0.020 0 0
P2190 N1732 N1143 16.04 0.0100 0.000 0.000 0 0
P2191 N2937 N2402 2.22 0.0100 0.000 0.030 0 0
P2192 N3778 N2672 44.18 0.0100 0.000 0.000 0 0
P2193 N3474 N4293 6.54 0.0100 0.020 0.070 0 0
P2194 N923 N2042 22.22 0.0100 0.410 0.000 0 0
P2195 N1090 N3487 24.08 0.0130 0.030 0.000 0 0
P2196 N4288 N4017 2.56 0.0130 0.000 0.000 0 0
P2197 N242 N2420 16.41 0.0100 0.000 0.340 0 0
P2198 N3995 N3845 24.51 0.0130 0.030 0.020 0 0
P2199 N3460 N1056 23.63 0.0130 0.400 0.000 0 0
P2200 N4333 N397 6.58 0.0120 0.000 2.570 0 0
P2201 N1659 N2284 64.66 0.0130 0.010 0.010 0 0
P2202 N3106 N1160 12.99 0.0130 0.000 0.000 0 0
P2203 N3737 N523 12.17 0.0100 0.000 0.000 0 0
P2204 N4137 N3642 41.19 0.0100 1.115 1.105 0 0
P2205 N1559 N312 20.09 0.0130 0.420 0.000 0 0
P2206 N817 N1773 26.41 0.0100 0.000 0.000 0 0
P2207 N1702 N450 40.03 0.0100 0.000 2.940 0 0
P2208 N1298 N2233 9.51 0.0100 0.000 0.370 0 0
P2209 N693 N1492 15.75 0.0130 3.870 0.000 0 0
P2210 N1901 N2650 16.43 0.0100 0.000 1.130 0 0
P2211 N55 N3390 2.53 0.0130 0.000 0.000 0 0
P2212 N3622 N3797 2.48 0.0100 0.000 0.400 0 0
P2213 N721 N418 35.63 0.0100 0.000 0.000 0 0
P2214 N1838 N571 33.93 0.0130 0.000 0.000 0 0
P2215 N142 N2472 70.47 0.0130 0.000 0.100 0 0
P2216 N1941 N645 51.37 0.0130 0.000 0.000 0 0
P2217 N3941 N2171 18.60 0.0130 0.000 0.000 0 0
P2218 N2471 N2876 60.48 0.0130 0.070 0.020 0 0
P2219 N679 N1395 21.71 0.0130 0.000 0.000 0 0
P2220 N1057 N1592 38.91 0.0100 0.000 1.000 0 0
P2221 N1517 N1712 5.02 0.0130 0.000 1.000 0 0
P2222 N484 N300 24.61 0.0130 0.020 0.000 0 0
P2223 N872 N2423 11.63 0.0100 0.000 0.000 0 0
P2224 N3323 N3846 6.35 0.0100 0.010 2.200 0 0
P2225 N494 N751 20.09 0.0130 0.020 0.000 0 0
P2226 N710 N636 6.04 0.0130 0.890 0.000 0 0
P2227 N3641 N221 26.85 0.0130 0.300 0.000 0 0
P2228 N1306 N1419 13.55 0.0100 0.000 0.000 0 0
P2229 N1839 N2328 37.22 0.0100 0.050 0.000 0 0
P2230 N2596 N28 70.07 0.0100 0.000 0.870 0 0
P2231 N691 N3959 22.14 0.0130 0.010 0.000 0 0
P2232 N2545 N222 24.30 0.0130 0.000 0.000 0 0
P2233 N929 N595 28.56 0.0100 0.000 0.000 0 0
P2234 N609 N339 48.10 0.0120 0.000 0.030 0 0
P2235 N3089 N1694 37.00 0.0100 0.000 0.000 0 0
P2236 N1799 N3215 32.16 0.0130 0.000 0.000 0 0
P2237 N66 N3709 52.15 0.0100 0.000 0.370 0 0
P2238 N798 N2331 23.28 0.0130 0.000 0.000 0 0
P2239 N3255 N221 37.61 0.0130 0.010 0.010 0 0
P2240 N1601 N1043 2.00 0.0100 0.000 0.000 0 0
P2241 N3977 N2268 14.65 0.0110 0.000 0.000 0 0
P2242 N3242 N3451 24.88 0.0100 0.000 0.470 0 0
P2243 N663 N2998 11.16 0.0130 0.100 0.000 0 0
P2244 N2909 N875 2.72 0.0100 0.000 0.000 0 0
P2245 N1474 N2921 14.59 0.0100 0.000 0.810 0 0
P2246 N230 N1262 5.37 0.0100 0.000 0.020 0 0
P2247 N2345 N3920 11.79 0.0130 3.360 0.000 0 0
P2248 N3599 N3834 30.95 0.0100 0.000 0.000 0 0
P2249 N805 N1474 38.61 0.0100 0.000 0.020 0 0
P2250 N858 N4223 16.87 0.0130 0.020 0.000 0 0
P2251 N3482 N1216 71.70 0.0130 0.020 0.250 0 0
P2252 N471 N3432 72.69 0.0130 0.080 0.130 0 0
P2253 N4202 N3834 17.69 0.0100 0.010 0.000 0 0
P2254 N51 N597 4.67 0.0100 0.000 0.000 0 0
P2255 N124 N2933 21.37 0.0130 0.000 0.000 0 0
P2256 N267 N1303 37.26 0.0100 0.000 0.000 0 0
P2257 N1749 N3425 35.60 0.0100 0.000 0.030 0 0
P2258 N1616 N3097 18.05 0.0120 0.000 0.020 0 0
P2259 N3135 N4273 19.82 0.0120 0.000 0.000 0 0
P2260 N1372 N2463 19.79 0.0130 0.000 0.000 0 0
P2261 N3744 N387 10.42 0.0100 0.000 1.150 0 0
P2262 N426 N752 46.58 0.0130 0.000 0.000 0 0
P2263 N886 N976 15.55 0.0100 0.010 0.030 0 0
P2264 N1946 N3246 17.24 0.0130 0.010 0.020 0 0
P2265 N2631 N2662 1.44 0.0100 0.000 0.000 0 0
P2266 N2178 N639 9.09 0.0100 0.000 0.000 0 0
P2267 N963 N2676 11.05 0.0100 0.000 0.000 0 0
P2268 N490 N1602 31.07 0.0100 0.620 0.340 0 0
P2269 N2245 N268 22.36 0.0120 0.000 0.000 0 0
P2270 N3939 N1913 6.78 0.0130 0.760 0.000 0 0
P2271 N1459 N1589 3.62 0.0100 0.000 0.000 0 0
P2272 N13 N553 20.01 0.0100 0.000 0.000 0 0
P2273 N3837 N3215 16.03 0.0130 0.010 0.010 0 0
P2274 N2077 N289 14.90 0.0130 0.000 0.000 0 0
P2275 N2571 N1629 18.39 0.0100 0.000 0.070 0 0
P2276 N2481 N612 1.29 0.0130 0.000 0.000 0 0
P2277 N523 N2867 20.56 0.0100 0.000 0.000 0 0
P2278 N336 N2327 15.02 0.0130 0.000 0.000 0 0
P2279 N219 N1575 14.67 0.0100 0.000 0.000 0 0
P2280 N3637 N1945 8.04 0.0120 2.740 0.000 0 0
P2281 N1667 N4264 17.46 0.0130 0.000 0.010 0 0
P2282 N2051 N4236 41.19 0.0120 0.000 0.000 0 0
P2283 N3535 N4324 57.10 0.0130 0.000 0.240 0 0
P2284 N281 N2897 24.35 0.0130 0.000 0.000 0 0
P2285 N417 N1385 8.36 0.0100 0.000 0.320 0 0
P2286 N2346 N3993 17.92 0.0120 0.000 0.610 0 0
P2287 N137 N1162 8.76 0.0120 0.000 0.030 0 0
P2288 N207 N4180 14.62 0.0100 0.000 0.460 0 0
P2289 N2825 N2278 21.36 0.0130 0.020 0.000 0 0
P2290 N132 N3871 35.93 0.0100 0.000 2.050 0 0
P2291 N11 N2125 11.76 0.0120 0.000 0.000 0 0
P2292 N106 N3267 16.44 0.0120 0.000 0.000 0 0
P2293 N36 N755 22.44 0.0120 0.000 0.000 0 0
P2294 N1605 N17 5.38 0.0130 1.490 0.000 0 0
P2295 N2857 N2350 22.31 0.0100 0.030 0.960 0 0
P2296 N1754 N510 11.29 0.0130 0.010 0.020 0 0
P2297 N3330 N2636 16.64 0.0100 0.490 0.000 0 0
P2298 N129 N2427 23.41 0.0130 0.000 0.000 0 0
P2299 N4034 N4019 18.75 0.0100 0.000 0.000 0 0
P2300 S56 N788 20.16 0.0130 0.000 0.020 0 0
P2301 N4308 N3507 22.43 0.0130 0.010 0.000 0 0
P2302 N507 N3061 14.31 0.0130 0.070 0.020 0 0
P2303 N2649 N2469 70.19 0.0100 0.000 0.000 0 0
P2304 N620 N1113 3.23 0.0100 1.800 0.000 0 0
P2305 N1939 N3921 14.10 0.0130 0.000 0.040 0 0
P2306 N1340 N2806 42.42 0.0130 0.070 0.000 0 0
P2307 N3731 N3332 32.20 0.0100 0.000 0.000 0 0
P2308 N4116 N3148 21.09 0.0100 0.000 0.000 0 0
P2309 N3970 N782 23.32 0.0100 0.000 1.340 0 0
P2310 N3553 N2281 20.71 0.0130 0.030 0.020 0 0
P2311 N2797 N1567 15.46 0.0100 0.000 0.000 0 0
P2312 N231 N3881 14.12 0.0130 0.000 0.060 0 0
P2313 N4176 N2395 32.63 0.0130 0.020 0.340 0 0
P2314 N3972 N1767 19.95 0.0100 0.750 0.000 0 0
P2315 N1168 N4232 17.49 0.0130 0.000 0.020 0 0
P2316 N770 N1843 50.14 0.0130 0.050 0.070 0 0
P2317 N3646 N1222 25.55 0.0100 0.040 0.000 0 0
P2318 N1778 N1400 42.33 0.0100 0.080 0.000 0 0
P2319 N3699 N392 2.39 0.0100 0.000 0.000 0 0
P2320 N1324 N1592 13.33 0.0130 0.000 0.000 0 0
P2321 N903 N4257 30.84 0.0100 0.020 0.000 0 0
P2322 N3417 N94 1.00 0.0130 0.000 0.000 0 0
P2323 N3350 N211 50.72 0.0130 0.000 0.000 0 0
P2324 N3752 N3350 42.19 0.0130 0.020 0.020 0 0
P2325 N1267 N2678 20.29 0.0130 0.170 0.000 0 0
P2326 N699 N3075 20.97 0.0130 0.030 0.000 0 0
P2327 N3201 N1436 18.74 0.0100 0.000 0.030 0 0
P2328 N2103 N2339 25.01 0.0100 0.000 0.020 0 0
P2329 N2341 N3890 13.94 0.0100 0.000 0.010 0 0
P2330 N940 N1971 17.40 0.0100 0.000 0.000 0 0
P2331 N615 N2204 19.62 0.0130 0.020 0.040 0 0
P2332 N2346 N3290 9.80 0.0120 0.030 0.000 0 0
P2333 N131 N3767 22.96 0.0130 0.000 0.000 0 0
P2334 N2204 N2750 16.62 0.0130 0.000 0.000 0 0
P2335 N3571 N2066 51.11 0.0100 0.010 0.000 0 0
P2336 N2664 N1992 18.84 0.0130 0.000 0.020 0 0
P2337 N2662 N458 1.00 0.0100 0.000 0.000 0 0
P2338 N150 N4324 17.69 0.0130 0.010 0.000 0 0
P2339 N250 N697 21.87 0.0100 0.020 0.020 0 0
P2340 N3905 N3892 17.59 0.0130 0.020 0.570 0 0
P2341 N1640 N4156 22.66 0.0130 0.000 0.000 0 0
P2342 N2668 N1178 7.51 0.0130 0.000 1.030 0 0
P2343 N1127 N2985 22.15 0.0130 0.260 0.020 0 0
P2344 N909 N1995 20.30 0.0100 0.000 0.000 0 0
P2345 N2401 N2395 37.66 0.0100 0.000 0.230 0 0
P2346 N1792 N2231 60.04 0.0100 0.020 1.060 0 0
P2347 N713 N1565 20.37 0.0130 0.020 0.000 0 0
P2348 N439 N3273 20.90 0.0100 0.000 0.010 0 0
P2349 N801 N3387 18.24 0.0120 0.000 0.000 0 0
P2350 N3675 N318 6.49 0.0100 0.000 0.170 0 0
P2351 N2964 N2734 18.74 0.0100 0.000 0.380 0 0
P2352 N791 N4211 13.54 0.0120 0.000 0.000 0 0
P2353 N1159 N2088 8.74 0.0100 0.000 0.960 0 0
P2354 N1146 N1192 8.63 0.0100 0.000 0.040 0 0
P2355 N310 N1148 13.17 0.0100 0.000 0.000 0 0
P2356 N2044 N3859 15.72 0.0100 0.030 0.000 0 0
P2357 N1061 N3421 68.36 0.0130 0.000 0.000 0 0
P2358 N1543 N450 48.92 0.0130 0.000 0.000 0 0
P2359 N2215 N1430 23.08 0.0130 0.000 0.030 0 0
P2360 N26 N103 8.04 0.0100 0.000 0.000 0 0
P2361 N989 N2021 23.00 0.0100 0.000 0.000 0 0
P2362 N154 N3004 1.80 0.0130 0.000 2.590 0 0
P2363 N1743 N1648 23.16 0.0100 0.010 0.010 0 0
P2364 N2020 N2131 1.91 0.0100 0.000 0.000 0 0
P2365 N3435 N3582 19.96 0.0100 0.000 0.010 0 0
P2366 N3142 N3004 19.48 0.0130 0.000 0.000 0 0
P2367 N4103 N4007 25.53 0.0110 0.000 0.010 0 0
P2368 N2046 N576 23.77 0.0130 0.010 0.000 0 0
P2369 N344 N2115 16.82 0.0100 0.020 0.000 0 0
P2370 N464 N3366 2.23 0.0100 0.000 0.000 0 0
P2371 N2523 N1959 10.10 0.0130 0.010 0.010 0 0
P2372 N3198 N1136 9.11 0.0100 0.000 0.000 0 0
P2373 N20 N3719 37.86 0.0100 2.160 2.200 0 0
P2374 N4322 N437 27.54 0.0130 0.020 0.100 0 0
P2375 N1809 N411 12.26 0.0100 0.000 0.000 0 0
P2376 N4135 N3982 13.94 0.0130 3.750 0.000 0 0
P2377 N440 N2438 21.34 0.0100 0.000 0.010 0 0
P2378 N125 N275 8.50 0.0100 0.000 0.000 0 0
P2379 N1032 N2453 16.15 0.0120 0.000 0.000 0 0
P2380 N3488 N2222 28.15 0.0100 0.000 0.000 0 0
P2381 N4163 N2686 51.26 0.0130 0.080 0.010 0 0
P2382 N945 N881 25.70 0.0100 0.000 0.000 0 0
P2383 N1971 N148 15.64 0.0100 0.010 0.010 0 0
P2384 N3596 N2673 18.54 0.0130 0.000 0.490 0 0
P2385 N304 N245 2.31 0.0100 0.000 0.000 0 0
P2386 N3517 N3336 22.68 0.0100 0.000 0.000 0 0
P2387 N1847 N2924 13.73 0.0120 0.000 0.000 0 0
P2388 N2330 N3837 11.98 0.0130 0.020 0.000 0 0
P2389 N4159 N1378 2.99 0.0100 0.000 0.000 0 0
P2390 N2968 S57 19.56 0.0120 0.000 0.000 0 0
P2391 N1562 N2504 22.89 0.0100 0.020 0.000 0 0
P2392 N1202 N2997 34.37 0.0100 0.000 0.040 0 0
P2393 N2017 N1575 6.69 0.0100 0.000 0.000 0 0
P2394 N1156 N2795 37.67 0.0130 0.000 0.030 0 0
P2395 N3952 N1712 19.55 0.0130 0.000 0.000 0 0
P2396 N3513 N2429 2.10 0.0160 0.860 0.000 0 0
P2397 N3281 N3004 6.60 0.0130 0.020 3.240 0 0
P2398 N1877 N830 18.63 0.0130 0.000 0.000 0 0
P2399 N2102 N770 39.72 0.0130 0.000 0.000 0 0
P2400 N2215 N1875 20.26 0.0130 0.000 0.030 0 0
P2401 N1892 N3256 25.64 0.0100 0.000 0.000 0 0
P2402 N551 N3691 15.07 0.0100 0.000 0.000 0 0
P2403 N303 N2906 30.09 0.0130 0.020 0.020 0 0
P2404 N529 N2288 16.16 0.0120 0.000 0.000 0 0
P2405 N2666 N347 18.02 0.0130 0.000 0.040 0 0
P2406 N1320 N3413 52.07 0.0100 0.010 0.010 0 0
P2407 N3160 N4319 6.05 0.0130 0.000 1.240 0 0
P2408 N2711 N3033 14.01 0.0100 0.000 0.240 0 0
P2409 N1397 N3019 2.64 0.0100 0.000 0.000 0 0
P2410 N4 N4209 4.04 0.0130 0.010 0.000 0 0
P2411 N1218 N3539 15.72 0.0120 0.000 0.000 0 0
P2412 N2538 S58 16.40 0.0100 0.000 0.000 0 0
P2413 N3085 N1881 17.94 0.0130 0.000 0.010 0 0
P2414 N2572 N237 2.30 0.0100 0.000 0.000 0 0
P2415 N2123 N1946 29.41 0.0130 0.010 0.000 0 0
P2416 N3590 N1632 60.68 0.0130 0.000 0.000 0 0
P2417 N3996 N903 52.95 0.0100 0.300 0.000 0 0
P2418 N1863 N2718 14.26 0.0130 0.050 0.030 0 0
P2419 N947 N1657 22.49 0.0100 0.000 0.000 0 0
P2420 N1976 N1079 33.12 0.0130 0.140 0.020 0 0
P2421 N3649 N405 21.46 0.0130 0.060 0.010 0 0
P2422 N2485 N3770 18.58 0.0130 0.020 0.020 0 0
P2423 N1881 N3373 18.88 0.0130 0.000 0.020 0 0
P2424 N1041 N607 59.29 0.0100 0.000 0.010 0 0
P2425 N3453 N3697 16.30 0.0130 0.000 0.030 0 0
P2426 N2873 N3131 21.40 0.0100 0.020 0.720 0 0
P2427 N680 N2907 8.23 0.0100 0.010 0.000 0 0
P2428 N4014 N894 34.51 0.0100 0.100 0.000 0 0
P2429 N3429 N176 4.03 0.0130 0.000 3.420 0 0
P2430 N4290 N3579 20.21 0.0130 0.030 0.000 0 0
P2431 N1072 N3031 12.13 0.0100 0.010 0.180 0 0
P2432 N3300 N2284 50.88 0.0130 0.040 0.000 0 0
P2433 N4098 N2920 13.52 0.0100 0.030 0.000 0 0
P2434 N2738 N3770 20.76 0.0130 0.000 0.000 0 0
P2435 N2485 N403 20.38 0.0130 0.000 0.000 0 0
P2436 N693 N2798 37.30 0.0130 0.000 0.000 0 0
P2437 N4254 N2880 13.23 0.0100 0.000 0.000 0 0
P2438 N3847 N1569 11.11 0.0130 0.000 0.000 0 0
P2439 N1617 N3372 1.07 0.0130 0.000 0.000 0 0
P2440 N2690 N373 15.85 0.0120 0.000 0.020 0 0
P2441 N1386 N585 20.41 0.0130 0.050 0.030 0 0
P2442 N3800 N956 60.30 0.0130 0.090 0.020 0 0
P2443 N485 N1304 22.61 0.0130 0.000 0.050 0 0
P2444 N3598 N3546 25.78 0.0130 0.020 0.000 0 0
P2445 N821 N309 18.41 0.0120 0.040 0.000 0 0
P2446 N3576 N1109 9.95 0.0100 0.150 0.000 0 0
P2447 N1108 N2938 74.80 0.0130 0.000 0.000 0 0
P2448 N3813 N1443 5.55 0.0100 0.000 0.000 0 0
P2449 N1870 N1998 58.40 0.0130 0.000 0.100 0 0
P2450 N2783 N3618 21.19 0.0100 0.000 0.000 0 0
P2451 N2144 N3464 9.70 0.0130 0.040 0.030 0 0
P2452 N2066 N2268 36.61 0.0100 0.260 3.300 0 0
P2453 N490 N512 30.68 0.0100 0.000 0.000 0 0
P2454 N1318 N677 16.90 0.0100 0.000 0.000 0 0
P2455 N537 N931 22.80 0.0130 0.000 0.450 0 0
P2456 N3629 N2283 20.22 0.0130 0.020 0.000 0 0
P2457 N1909 N1422 32.73 0.0100 0.000 1.190 0 0
P2458 N2142 N1611 17.29 0.0130 0.250 0.000 0 0
P2459 N3067 N3109 3.01 0.0100 0.000 0.410 0 0
P2460 N858 N3380 18.03 0.0130 0.000 0.000 0 0
P2461 N2198 N2674 10.16 0.0130 0.200 0.000 0 0
P2462 N3524 N17 48.17 0.0100 0.270 0.540 0 0
P2463 N1195 N66 16.63 0.0100 0.030 0.430 0 0
P2464 N791 S9 18.54 0.0120 0.010 0.000 0 0
P2465 N2501 N4148 9.26 0.0130 0.000 0.610 0 0
P2466 N3904 N3644 17.62 0.0130 0.020 0.000 0 0
P2467 N2680 N2561 58.28 0.0100 0.040 0.060 0 0
P2468 N3011 N1098 36.12 0.0100 0.010 0.000 0 0
P2469 N2805 N3954 15.46 0.0130 0.000 0.000 0 0
P2470 N3971 N3824 1.94 0.0100 0.000 0.000 0 0
P2471 N3308 N2855 24.63 0.0100 0.000 0.000 0 0
P2472 N60 N1634 48.66 0.0130 0.000 0.020 0 0
P2473 N687 N3517 22.37 0.0100 0.000 0.000 0 0
P2474 N3108 N1682 23.77 0.0100 0.020 0.010 0 0
P2475 N3311 N2387 17.85 0.0130 0.010 0.000 0 0
P2476 N76 N2526 2.44 0.0100 0.000 0.000 0 0
P2477 N2905 N2225 1.00 0.0100 0.000 0.000 0 0
P2478 N2651 N2994 1.96 0.0100 0.000 0.000 0 0
P2479 N2309 N1858 9.93 0.0130 0.000 0.450 0 0
P2480 N1896 N3186 11.68 0.0130 0.000 0.000 0 0
P2481 N548 N346 23.64 0.0100 0.000 0.000 0 0
P2482 N2297 N3319 49.53 0.0100 0.050 0.040 0 0
P2483 N1131 N2002 73.17 0.0130 0.000 0.570 0 0
P2484 N1141 N607 36.82 0.0100 0.010 0.040 0 0
P2485 N1583 N3386 2.80 0.0130 0.000 0.000 0 0
P2486 N3805 N1430 19.99 0.0130 0.000 0.030 0 0
P2487 N1620 N361 13.11 0.0100 0.000 0.000 0 0
P2488 N847 N3320 46.46 0.0100 0.020 0.020 0 0
P2489 N2040 N3661 2.47 0.0100 0.000 0.000 0 0
P2490 N3382 N1587 14.66 0.0100 0.000 0.010 0 0
P2491 N729 N3354 2.62 0.0100 0.000 0.000 0 0
P2492 N480 N1498 22.40 0.0100 0.000 0.000 0 0
P2493 N3660 N3581 69.79 0.0100 0.020 0.010 0 0
P2494 N3583 N713 13.23 0.0130 0.000 0.000 0 0
P2495 N919 N3478 11.01 0.0100 0.000 0.830 0 0
P2496 N1807 N3187 22.85 0.0120 0.000 0.950 0 0
P2497 N223 N4232 23.64 0.0130 0.850 0.000 0 0
P2498 S59 N1659 57.56 0.0130 0.000 0.000 0 0
P2499 N793 N992 21.78 0.0100 0.010 0.000 0 0
P2500 N1393 N7 18.91 0.0100 0.000 0.000 0 0
P2501 S60 N78 16.95 0.0130 0.000 0.000 0 0
P2502 N2851 N436 45.95 0.0130 0.010 0.000 0 0
P2503 N2223 N1611 4.51 0.0130 0.000 0.000 0 0
P2504 N1286 N1164 8.99 0.0100 0.000 0.710 0 0
P2505 N1627 N1157 42.56 0.0130 0.630 0.030 0 0
P2506 N3687 N1039 36.97 0.0130 0.000 0.160 0 0
P2507 N3088 N783 17.58 0.0100 0.000 0.000 0 0
P2508 N2746 N2145 14.31 0.0100 1.150 0.000 0 0
P2509 N2244 N684 52.65 0.0130 0.020 0.010 0 0
P2510 N695 N2803 19.95 0.0130 0.000 0.010 0 0
P2511 N1822 N2433 20.72 0.0130 0.000 0.010 0 0
P2512 N4291 N1161 50.17 0.0130 0.060 0.010 0 0
P2513 N2011 N73 2.55 0.0130 0.000 0.000 0 0
P2514 N669 N1042 14.90 0.0100 0.000 0.020 0 0
P2515 N3497 N2648 1.32 0.0100 0.000 0.000 0 0
P2516 N1782 N2681 16.80 0.0100 0.000 0.000 0 0
P2517 N2252 N2050 4.55 0.0100 0.000 0.480 0 0
P2518 N1523 N1712 20.08 0.0130 0.010 0.020 0 0
P2519 N4153 N337 1.84 0.0100 0.000 0.000 0 0
P2520 N928 N3969 7.58 0.0100 0.010 1.830 0 0
P2521 N1771 N2168 19.98 0.0100 0.000 0.000 0 0
P2522 N3266 N2846 15.52 0.0130 0.000 0.080 0 0
P2523 N252 N2856 2.37 0.0100 0.000 0.000 0 0
P2524 N423 N1674 26.69 0.0100 0.010 0.090 0 0
P2525 N2756 N1089 12.55 0.0130 0.000 0.000 0 0
P2526 N1428 N907 5.59 0.0100 0.000 1.500 0 0
P2527 N3580 N1065 14.07 0.0130 0.000 0.000 0 0
P2528 N357 N1275 2.52 0.0130 0.000 0.000 0 0
P2529 N846 N1673 14.76 0.0130 0.000 0.000 0 0
P2530 N2058 N2101 34.72 0.0100 0.000 0.400 0 0
P2531 N1952 N737 24.37 0.0130 0.010 0.020 0 0
P2532 N877 N529 16.25 0.0120 0.010 0.010 0 0
P2533 N4224 N2120 24.62 0.0100 0.000 0.000 0 0
P2534 N1284 N43 23.48 0.0100 0.020 0.000 0 0
P2535 N676 N1551 14.96 0.0100 0.000 0.000 0 0
P2536 N413 N4046 43.51 0.0120 0.020 0.000 0 0
P2537 N3803 N3651 33.99 0.0100 0.000 0.000 0 0
P2538 N2023 N3235 23.15 0.0130 0.060 0.000 0 0
P2539 N3934 S61 43.59 0.0120 0.000 0.000 0 0
P2540 N2870 N2079 54.91 0.0130 0.000 0.010 0 0
P2541 N786 N1442 20.22 0.0100 0.010 0.000 0 0
P2542 N3265 N1593 31.15 0.0100 0.920 0.850 0 0
P2543 N2423 N3118 6.24 0.0100 0.010 0.010 0 0
P2544 N3069 N3271 2.56 0.0130 0.000 0.000 0 0
P2545 N991 N185 16.55 0.0100 0.000 0.000 0 0
P2546 N2997 N1751 3.26 0.0100 0.000 3.170 0 0
P2547 N285 N4271 2.25 0.0100 0.000 0.000 0 0
P2548 N4188 N1390 9.93 0.0100 0.370 0.000 0 0
P2549 N3176 N1572 16.55 0.0100 0.080 0.020 0 0
P2550 N1821 N1088 18.77 0.0100 0.000 0.000 0 0
P2551 N1831 N1151 19.75 0.0130 0.000 0.000 0 0
P2552 N806 N799 31.22 0.0100 0.520 0.000 0 0
P2553 N1996 N3790 32.79 0.0100 0.110 0.030 0 0
P2554 N4253 N3388 18.07 0.0100 0.000 0.000 0 0
P2555 N3549 N2832 61.02 0.0130 0.000 0.030 0 0
P2556 N1994 N509 17.90 0.0100 0.000 0.000 0 0
P2557 N2627 N3443 19.53 0.0100 0.000 0.000 0 0
P2558 N3551 N4183 19.90 0.0130 0.040 0.020 0 0
P2559 N2245 N283 18.82 0.0120 0.010 0.000 0 0
P2560 N147 N3986 2.33 0.0100 0.000 0.000 0 0
P2561 N2317 N61 37.62 0.0130 0.090 0.010 0 0
P2562 N2275 N3998 7.70 0.0100 0.000 1.220 0 0
P2563 N7 N837 24.67 0.0100 0.000 0.000 0 0
P2564 N2443 N4012 22.51 0.0100 0.000 0.180 0 0
P2565 N761 N2008 9.26 0.0100 0.000 0.030 0 0
P2566 N3183 N2762 1.28 0.0130 0.000 0.000 0 0
P2567 N1189 N3078 43.78 0.0100 0.010 2.950 0 0
P2568 N2419 N1334 69.53 0.0130 0.080 0.010 0 0
P2569 N375 N591 7.71 0.0100 0.010 0.000 0 0
P2570 N1834 N152 7.23 0.0130 0.000 0.000 0 0
P2571 N213 N3980 13.56 0.0130 0.000 0.000 0 0
P2572 N3249 N4149 29.38 0.0130 0.000 0.000 0 0
P2573 N1688 N1114 33.72 0.0110 0.000 0.000 0 0
P2574 N3993 N3142 12.48 0.0130 0.000 2.570 0 0
P2575 N3405 N163 13.02 0.0100 0.000 0.900 0 0
P2576 N2957 N3257 11.61 0.0130 0.040 0.100 0 0
P2577 N897 N1388 17.40 0.0100 0.000 0.000 0 0
P2578 N487 N907 19.73 0.0130 0.010 0.050 0 0
P2579 N244 N562 22.31 0.0130 0.000 0.000 0 0
P2580 S62 N399 38.64 0.0100 0.000 0.060 0 0
P2581 N3336 N2165 4.05 0.0100 0.000 0.000 0 0
P2582 N3227 N2883 21.42 0.0130 0.440 0.000 0 0
P2583 N2778 N35 9.29 0.0120 0.000 0.590 0 0
P2584 N3300 N3054 36.50 0.0100 0.000 0.000 0 0
P2585 N1389 N961 26.60 0.0130 0.000 0.000 0 0
P2586 N2595 N1687 30.96 0.0100 0.000 0.430 0 0
P2587 N751 N1069 23.13 0.0120 0.010 0.100 0 0
P2588 N684 N1060 60.78 0.0130 0.000 0.000 0 0
P2589 N320 N3835 24.13 0.0100 0.000 0.000 0 0
P2590 N3228 N3533 19.67 0.0130 0.000 0.710 0 0
P2591 N3476 N4034 16.90 0.0100 0.000 0.000 0 0
P2592 N2050 N2944 69.42 0.0130 0.000 0.000 0 0
P2593 N773 N932 22.15 0.0130 0.000 0.000 0 0
P2594 N2650 N1249 38.66 0.0120 0.000 0.000 0 0
P2595 N2520 N2022 4.52 0.0130 0.000 0.870 0 0
P2596 S63 N3125 21.83 0.0130 0.000 0.030 0 0
P2597 S64 N2594 58.41 0.0120 0.000 0.020 0 0
P2598 N2347 N2317 17.80 0.0130 0.000 0.000 0 0
P2599 N3876 N4166 52.31 0.0130 0.000 0.070 0 0
P2600 N44 N925 48.35 0.0120 0.000 0.010 0 0
P2601 N1507 N710 69.51 0.0100 0.000 1.260 0 0
P2602 N3299 N1427 30.52 0.0100 0.020 0.080 0 0
P2603 N429 N168 19.91 0.0130 0.000 0.000 0 0
P2604 N1413 N1838 43.18 0.0130 0.000 0.230 0 0
P2605 N988 N1953 10.46 0.0130 0.000 1.290 0 0
P2606 N1561 N2082 41.95 0.0100 0.000 0.020 0 0
P2607 N599 N157 5.43 0.0100 0.000 0.000 0 0
P2608 N411 N2531 4.37 0.0100 0.200 0.430 0 0
P2609 N2146 N2917 3.60 0.0100 0.000 0.000 0 0
P2610 N1042 N3302 11.91 0.0100 0.000 0.100 0 0
P2611 N456 N3602 2.55 0.0100 0.000 0.000 0 0
P2612 N4042 N1120 15.80 0.0130 0.000 0.240 0 0
P2613 N718 N327 46.77 0.0130 0.090 2.420 0 0
P2614 N1089 N4317 5.10 0.0100 0.000 0.000 0 0
P2615 N169 N2753 2.54 0.0130 0.000 0.000 0 0
P2616 N3833 N3955 19.70 0.0100 0.010 0.000 0 0
P2617 N336 N1945 17.12 0.0120 0.000 0.860 0 0
P2618 N281 N2882 23.97 0.0130 0.000 0.010 0 0
P2619 N719 N685 1.61 0.0100 0.000 0.000 0 0
P2620 N1872 N4321 2.81 0.0100 0.000 0.000 0 0
P2621 N1847 N4065 14.10 0.0120 0.020 0.000 0 0
P2622 N223 N2684 37.31 0.0100 0.590 0.000 0 0
P2623 N2223 N2629 16.21 0.0130 0.000 0.000 0 0
P2624 N3598 N3468 25.52 0.0130 0.000 0.050 0 0
P2625 N1974 N2353 21.39 0.0130 0.000 0.000 0 0
P2626 N2104 N804 27.11 0.0100 0.200 0.000 0 0
P2627 N3001 N3211 44.19 0.0100 1.560 1.390 0 0
P2628 N3023 N3698 23.20 0.0100 0.590 0.000 0 0
P2629 N1907 N1825 11.31 0.0130 0.220 0.000 0 0
P2630 N924 N377 13.81 0.0100 0.000 0.000 0 0
P2631 N3471 N532 15.68 0.0100 0.000 1.610 0 0
P2632 N3656 N3243 19.06 0.0100 0.000 0.000 0 0
P2633 N3133 N2094 22.82 0.0130 0.000 0.000 0 0
P2634 N2687 N597 13.08 0.0100 0.000 0.000 0 0
P2635 N3495 N3240 60.86 0.0130 0.000 0.060 0 0
P2636 N2348 N2812 10.43 0.0100 0.000 0.000 0 0
P2637 N3725 N486 13.78 0.0100 0.000 0.000 0 0
P2638 N2121 N2149 9.82 0.0100 0.000 0.000 0 0
P2639 N1468 N3688 17.74 0.0100 0.010 0.000 0 0
P2640 N3578 N1212 11.42 0.0130 0.000 0.000 0 0
P2641 N3245 N3394 21.63 0.0130 0.010 0.010 0 0
P2642 N1957 N2737 2.35 0.0100 0.000 0.000 0 0
P2643 N1320 N2965 47.68 0.0100 0.000 0.070 0 0
P2644 N3846 N471 1.21 0.0130 0.100 0.000 0 0
P2645 N2033 N1291 12.02 0.0120 0.000 0.170 0 0
P2646 N568 S65 2.30 0.0100 0.000 0.000 0 0
P2647 N3519 N1911 23.65 0.0130 0.000 0.000 0 0
P2648 N1633 N3662 2.13 0.0160 0.000 0.000 0 0
P2649 N4229 N1840 46.47 0.0130 0.040 0.020 0 0
P2650 N1058 N1172 1.95 0.0100 0.000 0.000 0 0
P2651 N3460 N2464 2.73 0.0130 0.000 1.940 0 0
P2652 N734 N1810 18.47 0.0100 0.010 0.010 0 0
P2653 N444 N180 19.04 0.0100 0.000 0.000 0 0
P2654 N2235 N3996 23.01 0.0100 0.070 0.000 0 0
P2655 N512 N3408 22.01 0.0100 0.000 0.000 0 0
P2656 N3467 N2773 13.90 0.0130 0.000 0.000 0 0
P2657 N3039 N4243 16.69 0.0130 0.000 0.000 0 0
P2658 N1071 N227 16.15 0.0130 0.000 0.000 0 0
P2659 N2017 N3303 13.35 0.0130 0.020 0.040 0 0
P2660 N1700 N413 6.75 0.0100 0.050 0.150 0 0
P2661 N2230 N0 32.66 0.0100 0.000 0.010 0 0
P2662 N910 N557 19.98 0.0130 0.000 0.090 0 0
P2663 N696 N3583 17.68 0.0130 0.000 0.000 0 0
P2664 N1568 N3530 25.61 0.0100 0.000 0.000 0 0
P2665 N4362 S66 57.07 0.0100 0.000 0.000 0 0
P2666 N3783 N2871 22.28 0.0130 0.000 0.030 0 0
P2667 N1059 N706 11.68 0.0130 0.010 0.020 0 0
P2668 N1037 N2723 16.31 0.0130 0.010 0.000 0 0
P2669 N2460 N4325 22.21 0.0130 0.050 0.000 0 0
P2670 N400 N3549 34.37 0.0130 0.000 0.000 0 0
P2671 N3560 N2736 14.53 0.0100 0.000 0.180 0 0
P2672 N3462 N1249 23.46 0.0130 0.000 0.070 0 0
P2673 N2187 N3007 10.19 0.0100 0.000 0.230 0 0
P2674 N2384 N1828 19.35 0.0100 0.000 0.000 0 0
P2675 N1698 N2647 7.54 0.0100 0.000 0.060 0 0
P2676 N3539 N2453 16.16 0.0120 0.000 0.000 0 0
P2677 N1443 N3412 2.01 0.0100 0.000 0.000 0 0
P2678 N2996 N667 17.59 0.0120 0.000 0.010 0 0
P2679 N4351 N392 2.97 0.0100 0.000 0.000 0 0
P2680 N3658 N3636 11.71 0.0130 0.050 1.260 0 0
P2681 N2354 N979 2.49 0.0100 0.000 0.000 0 0
P2682 N3140 N2538 18.22 0.0100 0.100 0.030 0 0
P2683 N122 N3006 30.80 0.0130 0.000 0.000 0 0
P2684 N3678 N370 14.73 0.0120 0.000 0.010 0 0
P2685 N335 N3472 2.31 0.0100 0.000 0.000 0 0
P2686 N814 N963 39.89 0.0100 0.000 0.000 0 0
P2687 N479 N3562 33.27 0.0100 0.000 0.000 0 0
P2688 N3719 N141 54.33 0.0130 0.020 0.050 0 0
P2689 N1175 N764 25.89 0.0130 0.000 0.000 0 0
P2690 N3338 N3874 19.68 0.0100 0.000 0.000 0 0
P2691 N552 N3153 22.95 0.0130 0.980 0.900 0 0
P2692 N630 N1776 13.15 0.0100 0.000 0.000 0 0
P2693 N2865 N2201 9.05 0.0130 0.000 0.000 0 0
P2694 N1248 N3070 5.29 0.0100 0.000 0.390 0 0
P2695 N2476 N4143 20.50 0.0130 0.000 0.090 0 0
P2696 N1944 N2410 2.47 0.0120 0.000 0.000 0 0
P2697 N3501 N892 22.56 0.0130 0.000 0.000 0 0
P2698 N2306 N969 44.94 0.0100 0.000 0.000 0 0
P2699 N420 N2366 16.12 0.0130 0.070 0.470 0 0
P2700 N1060 N2209 19.69 0.0130 0.010 0.020 0 0
P2701 N629 N2051 11.15 0.0100 0.000 0.660 0 0
P2702 N4073 N4331 11.79 0.0120 0.010 0.000 0 0
P2703 N2719 N12 8.88 0.0130 0.230 0.010 0 0
P2704 N1482 N3531 22.54 0.0130 0.000 0.000 0 0
P2705 N467 N1365 49.87 0.0120 0.000 0.000 0 0
P2706 N24 N514 33.37 0.0100 0.000 0.000 0 0
P2707 N660 N260 31.78 0.0130 0.000 0.020 0 0
P2708 N1599 N2448 21.78 0.0100 0.000 0.000 0 0
P2709 N1116 N1519 10.45 0.0120 0.000 0.000 0 0
P2710 N945 N2394 55.76 0.0100 0.000 0.000 0 0
P2711 N3007 N2788 9.63 0.0100 0.000 0.000 0 0
P2712 N960 N2624 32.87 0.0100 0.000 0.230 0 0
P2713 N4130 N1990 8.48 0.0120 0.170 0.000 0 0
P2714 N62 N2709 1.51 0.0120 0.000 0.250 0 0
P2715 N3341 N4009 13.60 0.0130 0.030 0.000 0 0
P2716 N2059 S67 29.11 0.0100 0.000 0.000 0 0
P2717 N2294 N1966 5.06 0.0130 0.000 0.000 0 0
P2718 N593 N396 40.56 0.0130 0.040 0.000 0 0
P2719 N2779 N2763 66.28 0.0100 0.000 0.160 0 0
P2720 N3505 N2314 19.73 0.0120 0.040 0.010 0 0
P2721 N1296 N410 13.80 0.0100 0.000 0.000 0 0
P2722 N1479 N3652 57.74 0.0130 0.000 0.010 0 0
P2723 N1509 N2085 21.99 0.0130 0.020 0.000 0 0
P2724 N3338 N1254 25.18 0.0100 0.630 0.000 0 0
P2725 N3441 S68 36.50 0.0130 0.260 0.000 0 0
P2726 N2090 N1937 3.27 0.0120 0.000 0.650 0 0
P2727 N1850 N4232 28.07 0.0100 0.000 0.000 0 0
P2728 N3229 S69 55.70 0.0100 0.040 0.000 0 0
P2729 N3265 N1408 36.38 0.0100 0.770 0.760 0 0
P2730 N495 N2172 1.78 0.0100 0.000 0.000 0 0
P2731 N1958 N1059 21.48 0.0130 0.000 0.000 0 0
P2732 N143 N3128 18.20 0.0130 0.020 0.000 0 0
P2733 N3531 N4201 24.24 0.0130 0.020 0.030 0 0
P2734 N1777 N4021 2.28 0.0100 0.000 0.000 0 0
P2735 N113 N956 29.56 0.0130 0.030 0.400 0 0
P2736 N2579 N4101 38.36 0.0130 0.000 0.000 0 0
P2737 N3884 N3046 16.41 0.0100 0.000 0.000 0 0
P2738 N1565 N4186 44.01 0.0130 0.020 0.040 0 0
P2739 N1941 N3071 13.24 0.0130 0.000 0.000 0 0
P2740 N1747 N934 12.89 0.0100 0.000 0.010 0 0
P2741 N2592 N3751 32.61 0.0130 0.000 0.000 0 0
P2742 N1000 N2523 22.10 0.0130 0.000 0.000 0 0
P2743 N353 S28 51.35 0.0130 0.010 0.010 0 0
P2744 N1289 N2604 2.73 0.0100 0.000 0.000 0 0
P2745 N2086 N859 2.08 0.0130 0.000 0.000 0 0
P2746 N3040 N2278 20.40 0.0130 0.010 0.000 0 0
P2747 N1843 N3692 36.28 0.0130 0.000 0.000 0 0
P2748 N4363 N399 20.26 0.0100 0.000 0.060 0 0
P2749 N2646 N47 14.06 0.0100 0.000 0.000 0 0
P2750 N2722 N3802 5.53 0.0130 0.000 0.020 0 0
P2751 N726 N2498 6.56 0.0100 0.000 0.000 0 0
P2752 N2355 N3312 2.25 0.0100 0.000 0.000 0 0
P2753 N3478 N3717 6.75 0.0130 0.000 0.030 0 0
P2754 N3622 N2911 11.75 0.0100 0.000 0.000 0 0
P2755 N3287 N4214 13.55 0.0100 0.000 0.010 0 0
P2756 N3536 N3494 29.36 0.0100 0.000 1.800 0 0
P2757 N4095 N1046 46.87 0.0130 0.000 0.010 0 0
P2758 N3926 N1494 11.27 0.0130 0.010 0.000 0 0
P2759 N1213 N3700 13.18 0.0130 0.260 0.000 0 0
P2760 N1037 N1016 17.92 0.0130 0.000 0.000 0 0
P2761 N2196 N1759 25.81 0.0120 0.030 0.000 0 0
P2762 N2747 N3725 12.37 0.0100 0.000 0.000 0 0
P2763 N483 N3926 15.81 0.0130 0.000 0.000 0 0
P2764 N2495 N3014 19.78 0.0130 0.000 0.000 0 0
P2765 N3492 N1902 1.53 0.0120 0.000 0.000 0 0
P2766 N1558 N29 31.60 0.0100 0.000 0.040 0 0
P2767 N810 N1230 20.39 0.0130 0.010 0.000 0 0
P2768 N212 N3687 21.26 0.0130 0.000 0.000 0 0
P2769 N621 N381 30.07 0.0130 0.000 0.010 0 0
P2770 N4274 N975 64.54 0.0130 0.000 0.000 0 0
P2771 N1178 N3540 48.91 0.0120 0.000 0.000 0 0
P2772 N2010 N472 19.90 0.0100 0.000 0.530 0 0
P2773 N1026 N1180 17.36 0.0100 0.000 0.000 0 0
P2774 N1597 N298 17.34 0.0130 0.020 0.000 0 0
P2775 N655 N2348 11.06 0.0100 1.080 0.000 0 0
P2776 N1782 N549 16.92 0.0100 0.050 0.010 0 0
P2777 N3568 N3545 64.11 0.0130 0.000 0.000 0 0
P2778 N1277 N2755 15.49 0.0100 0.000 0.400 0 0
P2779 N4327 N2978 20.04 0.0130 0.010 0.000 0 0
P2780 N1831 N1294 25.09 0.0130 0.000 0.010 0 0
P2781 N3906 N2575 41.17 0.0130 0.000 0.000 0 0
P2782 N1623 N1749 21.19 0.0130 0.000 0.040 0 0
P2783 N2751 N3091 2.34 0.0130 0.000 0.000 0 0
P2784 N813 N4169 18.20 0.0100 0.000 0.000 0 0
P2785 N2612 N3282 26.65 0.0100 0.000 0.000 0 0
P2786 N3810 N4142 2.44 0.0100 0.000 0.000 0 0
P2787 N3428 N3245 18.44 0.0130 0.000 0.000 0 0
P2788 N3136 N996 17.75 0.0130 0.000 0.010 0 0
P2789 N1826 N325 18.20 0.0100 0.000 0.000 0 0
P2790 N1508 N49 7.03 0.0120 0.610 0.000 0 0
P2791 S70 N311 25.78 0.0100 0.290 0.000 0 0
P2792 N2139 N1116 24.33 0.0120 0.000 0.000 0 0
P2793 N2379 N705 19.97 0.0130 0.030 0.000 0 0
P2794 S71 N883 10.91 0.0100 0.000 0.300 0 0
P2795 N1150 S72 13.74 0.0100 0.000 0.000 0 0
P2796 N3443 N2735 20.44 0.0100 0.000 0.930 0 0
P2797 N1105 N1385 19.65 0.0130 0.000 0.000 0 0
P2798 N520 N2104 27.62 0.0100 0.010 0.200 0 0
P2799 N873 N3753 14.08 0.0100 0.910 0.000 0 0
P2800 N1034 N3073 11.73 0.0100 0.030 0.000 0 0
P2801 N2574 N1420 46.18 0.0130 0.000 0.000 0 0
P2802 N3078 N3167 78.95 0.0130 0.000 0.000 0 0
P2803 N536 N3190 11.70 0.0100 0.000 0.010 0 0
P2804 N806 N3304 26.40 0.0100 0.000 0.040 0 0
P2805 N3540 N241 50.72 0.0120 0.000 0.000 0 0
P2806 S73 N4222 2.72 0.0100 0.000 0.000 0 0
P2807 N363 N4305 17.23 0.0100 0.200 0.000 0 0
P2808 N3065 N202 53.29 0.0130 0.000 0.000 0 0
P2809 N1213 N793 20.25 0.0100 0.000 0.000 0 0
P2810 N2102 N4291 44.70 0.0130 0.030 0.090 0 0
P2811 N2998 N1092 17.63 0.0100 1.280 0.000 0 0
P2812 N4259 N1897 19.98 0.0130 0.000 0.000 0 0
P2813 N2552 N194 23.23 0.0100 0.000 0.000 0 0
P2814 N3633 N3064 3.44 0.0130 0.000 0.820 0 0
P2815 N2367 N3517 18.09 0.0100 0.000 0.000 0 0
P2816 N472 N1208 9.07 0.0100 0.000 1.150 0 0
P2817 N3674 N782 44.80 0.0120 0.000 0.000 0 0
P2818 N3530 N1798 33.19 0.0100 0.000 0.000 0 0
P2819 N3409 N1430 13.78 0.0130 0.050 0.000 0 0
P2820 N4033 N2187 16.54 0.0100 0.000 0.020 0 0
P2821 N2018 N2293 1.60 0.0130 0.000 0.000 0 0
P2822 N419 N2063 11.45 0.0120 0.000 0.000 0 0
P2823 N170 N2383 55.92 0.0100 0.080 0.020 0 0
P2824 N1574 N2580 59.40 0.0100 0.000 0.000 0 0
P2825 N418 N1028 8.40 0.0130 0.190 0.330 0 0
P2826 N1779 N3923 29.01 0.0100 0.000 0.020 0 0
P2827 N633 N4240 13.62 0.0100 0.000 0.340 0 0
P2828 N3798 N4125 47.94 0.0130 0.020 0.030 0 0
P2829 N2301 N3532 24.86 0.0100 0.000 0.040 0 0
P2830 N3226 S74 56.84 0.0100 0.000 0.000 0 0
P2831 N2147 N3001 37.90 0.0130 0.060 0.000 0 0
P2832 N3172 N139 2.63 0.0100 0.000 0.000 0 0
P2833 N4067 N2109 9.57 0.0130 0.000 0.000 0 0
P2834 N1785 N1947 19.68 0.0130 0.000 0.030 0 0
P2835 N822 N2593 25.89 0.0130 0.030 0.000 0 0
P2836 N3513 N4228 13.36 0.0120 0.000 0.000 0 0
P2837 N3441 N2097 12.75 0.0130 0.000 0.000 0 0
P2838 N4202 N591 48.56 0.0100 0.000 0.080 0 0
P2839 N2172 N1796 1.97 0.0100 0.000 0.000 0 0
P2840 N2250 N3621 3.98 0.0100 0.000 0.350 0 0
P2841 N72 N1719 3.65 0.0100 0.000 0.040 0 0
P2842 N4046 N2046 21.06 0.0120 0.000 0.000 0 0
P2843 N2898 N1469 5.93 0.0100 0.000 2.300 0 0
P2844 N824 N4237 34.90 0.0130 0.000 0.000 0 0
P2845 N1426 N363 71.16 0.0100 0.000 0.000 0 0
P2846 N3931 N1890 1.34 0.0130 0.000 0.000 0 0
P2847 N3746 N1062 22.59 0.0100 0.010 0.010 0 0
P2848 N4186 N1061 25.49 0.0130 0.000 0.000 0 0
P2849 N2967 N3476 14.51 0.0100 0.000 0.000 0 0
P2850 N1433 N3270 7.81 0.0120 0.000 0.000 0 0
P2851 N2510 N82 22.24 0.0100 0.850 0.000 0 0
P2852 N266 N637 7.19 0.0100 0.000 0.010 0 0
P2853 N4266 N4221 2.66 0.0130 0.000 0.030 0 0
P2854 N1763 N3752 13.64 0.0130 0.050 0.000 0 0
P2855 N933 N2916 13.27 0.0130 0.000 0.050 0 0
P2856 N1999 N1301 54.34 0.0100 0.220 0.170 0 0
P2857 N2876 N2638 50.95 0.0130 0.000 0.000 0 0
P2858 N4039 N247 28.35 0.0100 0.000 0.020 0 0
P2859 N3039 N2726 21.76 0.0130 0.030 0.000 0 0
P2860 N235 N1634 10.04 0.0130 0.010 0.110 0 0
P2861 N723 N862 60.00 0.0120 0.000 0.000 0 0
P2862 N1937 N3397 1.55 0.0100 0.210 0.000 0 0
P2863 N4351 N4256 2.93 0.0100 0.000 0.000 0 0
P2864 N3187 N126 13.05 0.0130 0.000 0.000 0 0
P2865 N3305 N1722 16.52 0.0130 0.910 0.020 0 0
P2866 N3335 N1425 14.29 0.0100 0.010 0.000 0 0
P2867 N316 N67 14.21 0.0100 0.000 0.000 0 0
P2868 N2906 N1186 33.29 0.0130 0.000 0.060 0 0
P2869 N3401 N425 6.86 0.0100 0.000 2.490 0 0
P2870 N4052 N698 14.77 0.0100 0.000 0.190 0 0
P2871 N1303 N4209 53.69 0.0130 0.040 0.770 0 0
P2872 N848 N3340 20.34 0.0130 0.010 0.030 0 0
P2873 N3151 N1549 40.43 0.0130 0.000 0.000 0 0
P2874 N2118 N2139 18.37 0.0120 0.010 0.000 0 0
P2875 N1007 N2819 17.60 0.0130 0.000 0.000 0 0
P2876 N493 N2966 3.72 0.0130 0.000 0.300 0 0
P2877 N1853 N1555 20.14 0.0130 0.000 0.640 0 0
P2878 N527 N2067 17.25 0.0130 0.000 0.000 0 0
P2879 N2209 N1496 17.47 0.0130 0.000 0.000 0 0
P2880 N1997 N3668 30.85 0.0100 0.000 0.010 0 0
P2881 N1204 N1142 16.85 0.0130 0.140 0.880 0 0
P2882 N3771 N1422 6.60 0.0130 0.020 0.000 0 0
P2883 N3578 N3980 12.50 0.0130 0.000 0.020 0 0
P2884 N1983 N2101 41.26 0.0130 0.000 0.190 0 0
P2885 N2605 N679 14.46 0.0130 0.090 0.040 0 0
P2886 N3494 S47 64.91 0.0130 0.030 0.000 0 0
P2887 N865 N2540 11.84 0.0110 0.000 0.000 0 0
P2888 N316 N2383 13.72 0.0100 0.010 0.010 0 0
P2889 N2218 N554 30.21 0.0130 0.050 0.000 0 0
P2890 N1370 N1331 19.97 0.0100 0.060 0.040 0 0
P2891 N1205 N2374 14.53 0.0130 0.040 0.000 0 0
P2892 N1356 N1261 1.52 0.0130 0.000 1.880 0 0
P2893 N1541 N1210 24.19 0.0100 0.110 0.100 0 0
P2894 N1080 N2328 11.93 0.0130 0.000 1.010 0 0
P2895 N362 N393 2.32 0.0130 0.000 0.000 0 0
P2896 N3249 N2569 59.05 0.0100 0.080 0.570 0 0
P2897 N3304 N2528 6.61 0.0100 0.000 0.950 0 0
P2898 N3691 N3876 64.16 0.0130 0.070 0.000 0 0
P2899 N3792 N2128 50.86 0.0100 0.000 1.100 0 0
P2900 N3613 N1303 12.91 0.0100 0.000 0.040 0 0
P2901 N88 N4006 30.70 0.0130 0.000 0.000 0 0
P2902 N870 N3782 13.17 0.0130 0.010 0.000 0 0
P2903 N1121 N1589 7.36 0.0100 0.000 1.510 0 0
P2904 N4123 N590 36.85 0.0130 0.000 0.270 0 0
P2905 N4262 N2124 5.24 0.0100 0.020 0.010 0 0
P2906 N1229 N931 46.68 0.0130 0.000 0.000 0 0
P2907 N2162 N3420 6.92 0.0130 0.000 0.000 0 0
P2908 N1808 N1849 24.98 0.0100 0.000 0.010 0 0
P2909 N814 N250 24.89 0.0100 0.010 0.000 0 0
P2910 N3473 N279 14.53 0.0130 0.000 0.080 0 0
P2911 N1092 N548 23.91 0.0100 0.000 0.050 0 0
P2912 N2968 S75 19.03 0.0120 0.010 0.000 0 0
P2913 N649 N2321 2.81 0.0120 0.560 0.420 0 0
P2914 N3538 N1732 12.40 0.0100 0.000 0.020 0 0
P2915 N1344 N1039 14.41 0.0130 0.020 0.150 0 0
P2916 N2091 N990 8.60 0.0100 0.000 0.000 0 0
P2917 N4137 N3642 41.20 0.0100 1.115 1.105 0 0
P2918 N4243 N2049 22.87 0.0130 0.000 0.420 0 0
P2919 N577 N127 10.01 0.0100 0.000 0.230 0 0
P2920 N3217 N3150 14.11 0.0130 0.000 0.000 0 0
P2921 N3074 N476 5.10 0.0130 0.000 0.000 0 0
P2922 N4241 N198 3.16 0.0100 0.000 0.000 0 0
P2923 N2180 N2051 52.41 0.0120 0.000 0.000 0 0
P2924 N1076 N1393 20.74 0.0130 0.000 0.010 0 0
P2925 N2319 N753 51.57 0.0130 0.000 0.000 0 0
P2926 N378 N2033 22.66 0.0100 0.000 0.270 0 0
P2927 N4129 N980 21.61 0.0100 0.010 0.000 0 0
P2928 N1583 N3239 13.05 0.0130 0.070 0.000 0 0
P2929 N1943 N1267 26.41 0.0100 0.000 0.000 0 0
P2930 N4233 N374 7.11 0.0100 0.010 1.410 0 0
P2931 N2237 N1162 20.08 0.0130 0.790 0.030 0 0
P2932 N2681 N2190 7.37 0.0100 0.010 0.240 0 0
P2933 N2665 N4002 10.05 0.0100 0.000 0.150 0 0
P2934 N2023 N108 34.40 0.0130 0.000 0.010 0 0
P2935 N3373 N3048 18.14 0.0130 0.000 0.000 0 0
P2936 N3809 N4078 36.35 0.0100 0.000 0.030 0 0
P2937 N1626 N356 20.62 0.0130 0.010 0.000 0 0
P2938 N3611 N3453 4.17 0.0100 0.000 0.220 0 0
P2939 N2219 N1571 2.46 0.0160 0.000 0.000 0 0
P2940 N1593 N3265 31.15 0.0130 0.050 0.000 0 0
P2941 N200 N1920 13.30 0.0100 0.000 0.000 0 0
P2942 N3850 N2132 15.58 0.0100 0.000 0.000 0 0
P2943 N3994 N3218 5.34 0.0120 0.000 0.000 0 0
P2944 N1605 N592 18.11 0.0120 0.000 0.000 0 0
P2945 N3394 N4226 20.70 0.0130 0.000 0.010 0 0
P2946 N31 N1542 18.73 0.0130 0.000 0.010 0 0
P2947 N19 N2700 3.13 0.0130 0.000 0.000 0 0
P2948 N3514 N783 11.61 0.0120 0.000 0.560 0 0
P2949 N3575 N2350 23.18 0.0100 0.000 0.000 0 0
P2950 N1586 N572 15.89 0.0100 0.000 0.300 0 0
P2951 N3868 N1398 2.47 0.0100 0.000 0.000 0 0
P2952 N1957 N3733 5.95 0.0120 0.000 0.060 0 0
P2953 N2901 N4010 2.14 0.0100 0.000 0.000 0 0
P2954 N4104 N797 24.13 0.0130 0.000 0.000 0 0
P2955 N643 N3485 20.10 0.0130 0.070 0.000 0 0
P2956 N1504 N1568 19.94 0.0100 0.000 0.000 0 0
P2957 N1771 N1318 13.73 0.0100 0.000 0.000 0 0
P2958 N2373 N3789 20.40 0.0130 0.000 0.010 0 0
P2959 N263 S76 51.52 0.0130 0.010 0.000 0 0
P2960 N1074 N1780 41.95 0.0130 0.000 0.020 0 0
P2961 N1695 N4326 2.58 0.0100 0.000 0.000 0 0
P2962 N3629 N2512 14.46 0.0130 0.010 0.030 0 0
P2963 N3121 N3146 16.87 0.0130 0.020 0.000 0 0
P2964 N558 N666 30.59 0.0100 0.000 1.660 0 0
P2965 N607 N3167 3.54 0.0100 0.000 2.960 0 0
P2966 N96 N4293 4.91 0.0100 0.080 0.020 0 0
P2967 N648 N1034 13.56 0.0100 0.040 0.000 0 0
P2968 N586 N3476 10.85 0.0120 0.000 0.260 0 0
P2969 S77 N2118 11.22 0.0120 0.000 0.000 0 0
P2970 N579 N3420 10.19 0.0130 0.000 1.130 0 0
P2971 N1787 N3637 24.25 0.0130 0.000 0.000 0 0
P2972 N1907 N2221 13.78 0.0130 0.000 0.000 0 0
P2973 N3555 N3298 15.01 0.0130 0.020 0.000 0 0
P2974 N1015 N1429 2.24 0.0100 0.000 0.000 0 0
P2975 N2803 N4162 17.95 0.0130 0.000 0.010 0 0
P2976 N4129 N423 23.04 0.0100 0.000 0.000 0 0
P2977 N269 N968 65.44 0.0120 0.000 0.000 0 0
P2978 N1674 N2357 22.00 0.0100 0.000 0.000 0 0
P2979 S78 N2551 16.93 0.0130 0.000 0.010 0 0
P2980 N2198 N3416 19.85 0.0130 0.000 0.030 0 0
P2981 N29 N2402 37.58 0.0100 0.000 0.020 0 0
P2982 N3692 N3694 52.29 0.0130 0.130 0.000 0 0
P2983 N2169 N4118 6.35 0.0100 0.000 0.000 0 0
P2984 N984 N3109 38.02 0.0130 0.000 0.010 0 0
P2985 N651 N3301 2.61 0.0100 0.000 0.000 0 0
P2986 N2062 N3490 23.85 0.0120 0.040 0.000 0 0
P2987 N2744 N591 3.33 0.0100 0.000 0.610 0 0
P2988 N1613 N3181 21.80 0.0110 0.000 0.010 0 0
P2989 N3427 N3551 17.18 0.0100 0.000 0.000 0 0
P2990 N922 N274 34.46 0.0100 0.000 0.040 0 0
P2991 N1373 N1181 13.02 0.0130 0.000 0.030 0 0
P2992 N1680 N3898 51.53 0.0100 0.000 0.000 0 0
P2993 N1955 N3117 10.86 0.0130 0.000 0.060 0 0
P2994 N437 N3309 22.63 0.0100 0.120 0.000 0 0
P2995 N2424 N3572 52.18 0.0130 0.010 0.070 0 0
P2996 N1887 N3229 4.98 0.0130 0.000 0.100 0 0
P2997 N1551 N3855 11.67 0.0100 0.000 0.000 0 0
P2998 N2450 N3546 11.58 0.0100 0.000 1.510 0 0
P2999 N1705 N2777 1.64 0.0130 0.000 0.000 0 0
P3000 N2272 N1862 10.38 0.0100 0.000 0.000 0 0
P3001 N3279 N2994 1.00 0.0100 0.550 0.220 0 0
P3002 N567 N3564 21.12 0.0100 0.000 1.040 0 0
P3003 N4080 N2727 11.33 0.0100 0.000 0.130 0 0
P3004 N3833 N3867 18.25 0.0100 0.000 0.010 0 0
P3005 N584 N1068 6.65 0.0100 0.000 0.040 0 0
P3006 N1998 N162 38.41 0.0130 0.010 0.040 0 0
P3007 N2049 N1867 14.92 0.0130 0.000 0.010 0 0
P3008 N3117 N3527 22.80 0.0130 0.000 0.030 0 0
P3009 N1636 N2533 19.93 0.0130 0.030 0.000 0 0
P3010 N2576 N1591 20.83 0.0100 0.000 0.020 0 0
P3011 N4124 N2609 16.89 0.0100 0.000 0.000 0 0
P3012 N2094 N2949 18.29 0.0130 0.070 0.000 0 0
P3013 N3474 N3749 5.78 0.0100 0.000 0.020 0 0
P3014 N1602 N3570 14.74 0.0130 0.000 0.000 0 0
P3015 N1752 N141 22.75 0.0100 0.000 2.010 0 0
P3016 N4041 N502 4.00 0.0120 0.020 0.000 0 0
P3017 N83 N813 20.45 0.0100 0.000 0.000 0 0
P3018 N2719 N10 48.69 0.0130 0.000 0.000 0 0
P3019 N4237 N1024 59.22 0.0130 0.000 0.060 0 0
P3020 N3263 N3110 11.99 0.0100 0.000 0.000 0 0
P3021 N1194 N603 3.91 0.0120 0.000 0.320 0 0
P3022 N1878 N3554 13.52 0.0120 0.000 0.000 0 0
P3023 N3435 N1365 4.88 0.0100 0.000 0.540 0 0
P3024 N1265 N1886 20.15 0.0130 0.000 0.130 0 0
P3025 N2616 S79 20.44 0.0130 0.060 0.000 0 0
P3026 N698 N2314 6.97 0.0100 0.000 0.760 0 0
P3027 N2963 N4281 20.82 0.0120 0.000 0.010 0 0
P3028 N3401 S80 20.00 0.0100 0.000 0.000 0 0
P3029 N3397 N384 14.69 0.0100 0.000 0.030 0 0
P3030 N3774 N3025 53.49 0.0130 0.000 0.000 0 0
P3031 N272 S81 32.86 0.0130 0.000 0.000 0 0
P3032 N3619 N1366 3.55 0.0100 0.000 0.000 0 0
P3033 N4024 N3560 17.71 0.0100 0.000 0.050 0 0
P3034 N1415 N3871 24.20 0.0130 0.010 1.720 0 0
P3035 N3745 N644 21.35 0.0100 0.000 0.000 0 0
P3036 N152 N2492 4.51 0.0130 0.000 0.370 0 0
P3037 N1884 N3751 27.58 0.0130 0.000 0.000 0 0
P3038 N1032 N2592 39.79 0.0130 0.010 0.000 0 0
P3039 N1669 N2272 11.64 0.0100 0.000 0.000 0 0
P3040 N1564 N1172 1.79 0.0100 0.000 0.000 0 0
P3041 N2924 N1895 14.82 0.0120 0.010 0.020 0 0
P3042 N4255 N162 23.45 0.0130 0.020 0.000 0 0
P3043 N2992 N2958 13.26 0.0120 0.010 0.400 0 0
P3044 N1004 N831 12.32 0.0130 0.000 0.000 0 0
P3045 N257 N1085 16.45 0.0130 0.000 0.000 0 0
P3046 N341 N4018 2.30 0.0100 0.000 0.000 0 0
P3047 N510 N339 8.34 0.0100 0.000 0.030 0 0
P3048 N1368 N544 16.27 0.0100 0.000 0.000 0 0
P3049 N883 N1440 22.42 0.0100 0.600 0.000 0 0
P3050 N1104 N4112 21.82 0.0130 0.000 0.740 0 0
P3051 N2063 N3877 5.99 0.0120 0.000 0.000 0 0
P3052 N3617 N3724 16.93 0.0100 2.270 2.090 0 0
P3053 N542 N652 3.27 0.0100 0.000 0.000 0 0
P3054 N2433 N1663 24.68 0.0130 0.000 0.000 0 0
P3055 N4068 N1131 28.47 0.0100 0.000 0.710 0 0
P3056 N1512 N297 6.47 0.0120 0.000 0.020 0 0
P3057 N3469 N862 7.70 0.0100 0.000 0.420 0 0
P3058 N3985 N4019 9.96 0.0120 0.000 0.320 0 0
P3059 N1322 N892 12.24 0.0130 0.000 0.020 0 0
P3060 N3506 N1685 2.66 0.0130 0.000 0.000 0 0
P3061 N1495 N2987 15.74 0.0130 0.000 0.000 0 0
P3062 N3736 N1995 13.14 0.0100 0.010 0.070 0 0
P3063 N3826 N3880 29.83 0.0130 0.000 0.020 0 0
P3064 N2049 N955 35.40 0.0100 0.740 0.690 0 0
P3065 N2847 N1977 16.73 0.0100 0.000 0.010 0 0
P3066 N975 N4334 8.52 0.0130 0.580 0.060 0 0
P3067 N1943 N2475 10.75 0.0100 0.000 0.000 0 0
P3068 N739 N3684 13.67 0.0130 0.000 0.000 0 0
P3069 N3729 N68 18.39 0.0100 0.000 0.230 0 0
P3070 N3092 N1743 22.64 0.0100 0.010 0.000 0 0
P3071 N2601 N2746 20.34 0.0100 0.000 1.170 0 0
P3072 N3851 N4047 17.46 0.0130 0.000 0.000 0 0
P3073 N2561 N2492 22.14 0.0100 0.030 0.000 0 0
P3074 N3174 N2028 30.15 0.0100 0.910 0.000 0 0
P3075 N784 N2337 21.66 0.0100 0.190 0.000 0 0
P3076 N2088 N2483 34.31 0.0130 0.130 0.020 0 0
P3077 N2872 N1160 22.89 0.0100 0.000 0.350 0 0
P3078 N3498 S82 41.72 0.0130 0.000 0.000 0 0
P3079 N2691 N2833 2.46 0.0130 0.000 0.000 0 0
P3080 N2311 N2880 23.28 0.0100 0.000 0.100 0 0
P3081 N3940 N1860 17.39 0.0100 0.000 0.000 0 0
P3082 N1451 S70 19.86 0.0130 0.310 0.000 0 0
P3083 N3823 N340 2.87 0.0100 0.000 0.000 0 0
P3084 N2412 N2574 2.90 0.0100 0.000 0.580 0 0
P3085 N2966 N2164 18.44 0.0130 0.000 0.000 0 0
P3086 N935 N3737 10.63 0.0100 0.030 0.000 0 0
P3087 N835 N2835 66.06 0.0130 0.000 0.000 0 0
P3088 N1864 N305 17.11 0.0130 0.000 0.000 0 0
P3089 N3946 N233 20.68 0.0130 0.000 0.000 0 0
P3090 N2038 N1827 18.26 0.0130 0.060 0.010 0 0
P3091 N3194 N3442 43.25 0.0130 0.020 0.010 0 0
P3092 N2808 N220 8.82 0.0100 0.000 0.300 0 0
P3093 N2554 N3648 6.90 0.0120 0.000 0.000 0 0
P3094 N1426 N1499 20.08 0.0100 0.000 0.000 0 0
P3095 N3543 N2963 20.99 0.0120 0.000 0.000 0 0
P3096 N3981 N2951 19.03 0.0130 0.020 0.000 0 0
P3097 N2089 N4323 22.70 0.0130 0.000 0.000 0 0
P3098 N1754 N842 19.34 0.0130 0.000 0.000 0 0
P3099 N4027 N2553 14.22 0.0100 0.000 0.030 0 0
P3100 N3587 N2766 2.44 0.0130 0.240 0.280 0 0
P3101 N620 N387 45.96 0.0120 0.120 0.000 0 0
P3102 N1728 N1288 2.09 0.0130 0.000 0.000 0 0
P3103 N1284 N366 19.60 0.0100 0.000 0.000 0 0
P3104 N3912 N465 1.00 0.0100 0.000 0.000 0 0
P3105 N2366 N4248 17.18 0.0120 0.010 0.010 0 0
P3106 N3969 N1641 57.62 0.0120 0.000 0.060 0 0
P3107 N1463 N260 18.54 0.0130 0.080 0.000 0 0
P3108 N2050 N2255 22.57 0.0130 0.000 0.000 0 0
P3109 N2166 N397 45.16 0.0130 0.010 0.000 0 0
P3110 N2839 N2184 2.28 0.0130 0.000 0.000 0 0
P3111 N3529 N974 13.83 0.0100 0.000 0.410 0 0
P3112 N1520 N3065 56.33 0.0130 0.000 0.000 0 0
P3113 N2765 N385 18.36 0.0130 0.000 0.000 0 0
P3114 N2558 N1395 16.29 0.0130 0.000 0.040 0 0
P3115 N4013 N1261 115.32 0.0130 0.000 0.000 0 0
P3116 N296 N2745 23.12 0.0100 0.000 0.310 0 0
P3117 N1420 N3063 18.70 0.0130 0.060 0.010 0 0
P3118 N46 N1107 18.12 0.0130 0.000 0.000 0 0
P3119 N290 N2934 38.75 0.0100 0.020 0.010 0 0
P3120 N2555 N674 7.90 0.0100 0.000 0.740 0 0
P3121 S33 N2371 23.22 0.0130 0.000 0.000 0 0
P3122 N2369 N144 18.45 0.0120 0.000 0.010 0 0
P3123 S83 N1559 53.27 0.0130 0.000 0.020 0 0
P3124 N1960 N289 14.59 0.0130 0.000 0.020 0 0
P3125 N2364 N3044 6.09 0.0100 0.000 0.260 0 0
P3126 N2482 N3044 4.29 0.0160 0.000 0.000 0 0
P3127 N3368 N186 14.15 0.0130 0.000 0.000 0 0
P3128 N871 N955 38.30 0.0100 0.000 0.620 0 0
P3129 N238 N3804 6.62 0.0100 0.010 1.610 0 0
P3130 N3792 N3961 48.73 0.0100 0.010 0.000 0 0
P3131 N3461 N3635 23.50 0.0130 0.010 0.010 0 0
P3132 S84 N3616 74.51 0.0130 0.000 0.000 0 0
P3133 S85 N1451 18.36 0.0130 0.000 0.000 0 0
P3134 N3837 N56 13.36 0.0130 0.020 0.000 0 0
P3135 N545 N563 5.47 0.0130 0.000 0.120 0 0
P3136 N1446 N1814 17.49 0.0130 0.000 0.000 0 0
P3137 N3629 N765 11.97 0.0130 0.000 0.020 0 0
P3138 N3140 N3092 20.26 0.0100 0.000 0.000 0 0
P3139 N524 N2335 17.57 0.0130 1.120 0.010 0 0
P3140 N3240 N3641 15.28 0.0130 0.070 0.000 0 0
P3141 N3797 N3483 16.56 0.0100 0.000 0.000 0 0
P3142 N731 N52 33.76 0.0100 0.000 0.120 0 0
P3143 N1012 N3859 9.17 0.0100 0.000 0.000 0 0
P3144 N37 N3298 19.45 0.0130 0.110 0.040 0 0
P3145 N3762 N1694 23.32 0.0100 0.000 1.110 0 0
P3146 N1211 N4062 13.38 0.0130 0.000 0.000 0 0
P3147 N2361 N876 21.45 0.0100 0.180 0.000 0 0
P3148 N4070 N129 11.75 0.0130 0.000 0.540 0 0
P3149 N2091 N4263 15.89 0.0100 0.440 0.000 0 0
P3150 N3396 N3519 23.84 0.0130 0.000 0.020 0 0
P3151 S86 N734 17.79 0.0100 0.000 0.000 0 0
P3152 N974 N3606 18.36 0.0130 0.020 0.000 0 0
P3153 N3597 N1748 19.61 0.0100 0.000 0.010 0 0
P3154 N1490 N3937 38.53 0.0100 0.000 0.000 0 0
P3155 N1062 N3715 17.21 0.0100 0.000 0.000 0 0
P3156 N3587 N1972 17.01 0.0120 0.010 0.010 0 0
P3157 N3828 N3579 22.37 0.0130 0.000 0.030 0 0
P3158 N4051 N888 23.03 0.0100 0.000 0.200 0 0
P3159 N2381 N2233 2.50 0.0100 0.000 1.110 0 0
P3160 N4239 N3838 16.22 0.0100 0.020 0.010 0 0
P3161 N3755 N3400 2.17 0.0100 0.000 0.000 0 0
P3162 N2750 N3657 17.08 0.0100 0.010 0.000 0 0
P3163 N2554 N2166 6.50 0.0120 0.000 1.890 0 0
P3164 N270 N1540 2.50 0.0100 0.000 0.000 0 0
P3165 S87 N4140 34.54 0.0100 0.000 0.030 0 0
P3166 N2141 N1287 2.97 0.0100 0.000 0.000 0 0
P3167 N693 N1259 18.41 0.0100 4.240 0.000 0 0
P3168 N1648 N1412 9.13 0.0100 0.060 0.000 0 0
P3169 N346 N4263 21.85 0.0100 0.000 0.000 0 0
P3170 N894 S88 18.53 0.0100 0.530 0.000 0 0
P3171 N2108 N389 3.48 0.0100 0.000 0.000 0 0
P3172 N772 N4013 107.88 0.0130 0.020 0.000 0 0
P3173 N1246 N2238 66.09 0.0100 0.000 0.000 0 0
P3174 N3388 N2093 12.10 0.0100 0.000 0.010 0 0
P3175 N3386 N3843 4.11 0.0130 0.390 0.000 0 0
P3176 N3782 N3295 22.04 0.0130 0.010 0.000 0 0
P3177 N1923 N3691 4.79 0.0130 0.010 0.080 0 0
P3178 N3164 N3670 12.54 0.0130 0.030 0.000 0 0
P3179 N3028 N2783 5.85 0.0100 0.000 0.000 0 0
P3180 N328 N1462 58.41 0.0100 0.010 0.000 0 0
P3181 N4035 N539 9.38 0.0100 0.000 0.680 0 0
P3182 N4235 N284 4.92 0.0110 0.000 0.000 0 0
P3183 N2391 N2137 17.19 0.0100 0.000 0.000 0 0
P3184 N2077 N1945 9.58 0.0120 0.060 0.440 0 0
P3185 N1011 N361 3.02 0.0130 0.000 0.000 0 0
P3186 N4360 N2669 6.08 0.0130 0.000 0.020 0 0
P3187 N3763 N3648 34.54 0.0100 0.000 0.840 0 0
P3188 N1133 N3235 30.61 0.0130 0.000 0.000 0 0
P3189 N4092 N245 6.84 0.0130 0.000 0.000 0 0
P3190 N2733 N16 22.61 0.0100 0.010 0.000 0 0
P3191 N1696 N116 10.81 0.0130 0.010 0.000 0 0
P3192 N1259 N1114 36.35 0.0100 0.020 0.260 0 0
P3193 N637 N3174 48.10 0.0100 0.000 0.000 0 0
P3194 N3709 N2788 15.04 0.0100 0.000 0.000 0 0
P3195 N4094 N690 27.49 0.0120 0.000 0.000 0 0
P3196 N1534 N369 18.72 0.0130 0.000 0.520 0 0
P3197 N2569 N2771 46.99 0.0130 0.050 0.010 0 0
P3198 N2695 N4115 19.26 0.0100 0.010 0.000 0 0
P3199 N43 N2022 4.87 0.0100 0.000 0.980 0 0
P3200 N4011 N525 28.04 0.0100 0.040 0.030 0 0
P3201 N3449 N2591 20.67 0.0130 0.000 0.000 0 0
P3202 N3636 N2163 19.97 0.0130 0.000 0.020 0 0
P3203 N2073 S89 49.50 0.0130 0.000 0.000 0 0
P3204 N3099 N4104 20.18 0.0130 0.010 0.000 0 0
P3205 N2055 N2245 3.85 0.0130 0.000 1.420 0 0
P3206 N3407 N3703 16.31 0.0100 0.000 0.000 0 0
P3207 N4135 N347 14.15 0.0130 2.440 0.000 0 0
P3208 N1811 N283 18.32 0.0120 0.000 0.010 0 0
P3209 N343 S90 26.82 0.0100 0.000 0.000 0 0
P3210 N3609 N3523 2.34 0.0130 0.000 0.000 0 0
P3211 N1350 N2073 33.04 0.0130 0.030 0.030 0 0
P3212 N1865 N141 30.62 0.0100 0.000 1.800 0 0
P3213 N2304 N1371 3.72 0.0100 0.120 0.800 0 0
P3214 N605 N1588 26.79 0.0100 0.000 0.380 0 0
P3215 N2069 N3355 6.73 0.0100 0.000 0.000 0 0
P3216 N403 N2377 22.17 0.0130 0.010 0.000 0 0
P3217 N2002 N2140 27.62 0.0130 0.000 0.000 0 0
P3218 N4337 N1615 19.45 0.0100 0.000 0.010 0 0
P3219 N2505 N1174 42.94 0.0130 0.010 0.060 0 0
P3220 N3393 N190 26.94 0.0130 0.010 0.000 0 0
P3221 N1624 N114 22.93 0.0130 0.000 0.040 0 0
P3222 N2871 N1222 46.31 0.0130 0.000 0.000 0 0
P3223 N322 N3101 17.86 0.0100 0.000 0.270 0 0
P3224 N2867 N4006 23.26 0.0100 0.010 0.140 0 0
P3225 N1849 N2739 13.16 0.0100 0.000 0.020 0 0
P3226 N1548 N2912 42.55 0.0130 0.000 0.140 0 0
P3227 N223 N3684 14.32 0.0130 0.000 0.000 0 0
P3228 N436 N1960 11.01 0.0130 0.000 0.020 0 0
P3229 N1735 N2380 15.87 0.0130 0.000 0.000 0 0
P3230 N2487 N3872 2.41 0.0100 0.000 0.000 0 0
P3231 N1629 N1170 38.03 0.0130 0.010 0.010 0 0
P3232 N56 N3473 24.12 0.0130 0.010 0.010 0 0
P3233 N1877 N4339 13.79 0.0130 2.720 0.000 0 0
P3234 N3499 N2117 3.39 0.0120 0.060 0.000 0 0
P3235 N1150 N2530 9.44 0.0100 0.000 0.000 0 0
P3236 N1671 N2699 35.93 0.0130 0.140 0.010 0 0
P3237 N1030 N1631 16.62 0.0130 0.000 0.670 0 0
P3238 N4035 N2263 20.05 0.0100 0.200 0.000 0 0
P3239 N1478 N2768 2.40 0.0100 0.000 0.000 0 0
P3240 N2261 N2566 56.97 0.0100 0.000 0.000 0 0
P3241 S91 N1350 18.64 0.0130 0.000 0.000 0 0
P3242 N269 N718 6.25 0.0120 0.020 0.000 0 0
P3243 N868 N196 16.35 0.0100 0.000 0.080 0 0
P3244 N4319 N370 19.33 0.0120 0.000 0.000 0 0
P3245 N1693 N3070 13.38 0.0100 0.010 1.140 0 0
P3246 N740 N2330 26.56 0.0130 0.000 0.000 0 0
P3247 N570 N4114 22.97 0.0120 0.000 0.000 0 0
P3248 N1264 N3553 20.05 0.0130 0.190 0.000 0 0
P3249 N3155 N1975 17.48 0.0100 0.000 0.000 0 0
P3250 N2321 N649 2.71 0.0120 0.000 0.000 0 0
P3251 N2807 N1526 2.20 0.0100 0.000 0.000 0 0
P3252 N535 N4135 18.97 0.0130 0.000 3.450 0 0
P3253 N3150 N3686 62.89 0.0130 0.040 0.000 0 0
P3254 N3446 N855 4.58 0.0100 0.000 0.000 0 0
P3255 N3754 N3480 5.72 0.0100 0.000 0.420 0 0
P3256 N645 N4070 57.99 0.0130 0.000 0.030 0 0
P3257 N3669 N3146 5.83 0.0100 0.200 0.000 0 0
P3258 N2793 N1686 25.56 0.0130 0.000 0.000 0 0
P3259 N1167 N1951 11.12 0.0100 0.000 0.000 0 0
P3260 N1415 N3617 24.45 0.0130 0.000 1.810 0 0
P3261 N2441 N698 11.40 0.0100 0.000 0.190 0 0
P3262 N231 N3310 12.76 0.0130 0.030 0.030 0 0
P3263 N2249 N3540 1.13 0.0100 0.000 0.650 0 0
P3264 N2999 N3914 9.70 0.0130 0.000 0.160 0 0
P3265 S92 N2009 58.31 0.0130 0.000 0.030 0 0
P3266 N2326 N1689 14.74 0.0100 0.000 0.010 0 0
P3267 N3880 N1079 42.85 0.0130 0.000 0.000 0 0
P3268 S93 N3726 12.82 0.0130 0.000 0.000 0 0
P3269 N1643 N885 31.80 0.0100 0.010 0.000 0 0
P3270 N658 S94 16.20 0.0130 0.050 0.000 0 0
P3271 N4206 N1966 18.06 0.0100 0.550 0.020 0 0
P3272 N1572 N1000 15.64 0.0100 0.000 0.030 0 0
P3273 N4356 N209 42.84 0.0130 0.000 0.010 0 0
P3274 N1039 N3042 3.20 0.0130 0.000 0.000 0 0
P3275 N2973 N1467 1.48 0.0130 0.000 0.000 0 0
P3276 N584 N837 19.48 0.0100 0.000 0.000 0 0
P3277 N161 N4102 6.98 0.0130 0.000 0.000 0 0
P3278 N2599 N53 2.13 0.0160 0.000 0.000 0 0
P3279 N4303 N4269 7.42 0.0130 0.000 0.000 0 0
P3280 N1359 N2627 16.24 0.0100 0.000 0.010 0 0
P3281 N2680 N3110 7.34 0.0100 0.000 0.060 0 0
P3282 N2623 N863 7.97 0.0130 0.000 0.000 0 0
P3283 N2448 N1869 39.39 0.0100 0.000 0.000 0 0
P3284 N961 N4251 32.65 0.0130 0.000 0.000 0 0
P3285 N2360 N4036 1.43 0.0100 0.000 0.000 0 0
P3286 N1819 N3170 10.72 0.0130 0.000 0.000 0 0
P3287 N572 N2382 14.48 0.0100 0.000 0.000 0 0
P3288 N2739 N1603 12.28 0.0100 0.000 0.010 0 0
P3289 N3626 N2092 26.15 0.0100 0.000 0.000 0 0
P3290 N3225 N790 33.08 0.0130 0.010 0.000 0 0
P3291 N2224 N3607 1.39 0.0130 0.000 0.000 0 0
P3292 N1957 N807 46.65 0.0120 0.000 0.000 0 0
P3293 N4248 N466 20.85 0.0120 0.000 0.000 0 0
P3294 N2779 N820 32.60 0.0100 0.000 0.190 0 0
P3295 N2197 N1110 23.42 0.0130 0.000 0.000 0 0
P3296 N557 N4250 18.45 0.0130 0.000 0.010 0 0
P3297 N3630 N1576 2.02 0.0100 0.000 0.000 0 0
P3298 N3527 N165 17.23 0.0100 0.000 0.000 0 0
P3299 N752 N858 44.56 0.0130 0.000 0.380 0 0
P3300 N3462 N2072 18.63 0.0130 0.000 0.050 0 0
P3301 N3007 N2889 15.15 0.0100 0.320 0.000 0 0
P3302 N4123 N67 17.56 0.0130 0.010 0.010 0 0
P3303 N3934 N4140 2.69 0.0100 1.950 0.000 0 0
P3304 N4085 N236 5.58 0.0130 0.040 0.000 0 0
P3305 N4342 N3452 1.94 0.0130 0.000 0.000 0 0
P3306 N467 N4082 5.40 0.0120 0.020 0.000 0 0
P3307 S95 N3923 26.00 0.0100 0.000 0.420 0 0
P3308 N1307 N1755 13.76 0.0130 0.020 0.000 0 0
P3309 N3838 N1714 4.07 0.0100 0.000 0.590 0 0
P3310 N683 N1066 14.40 0.0100 0.000 0.000 0 0
P3311 N3773 N982 2.42 0.0100 0.000 0.000 0 0
P3312 N3315 N2610 20.47 0.0130 0.020 0.020 0 0
P3313 N824 N2795 9.27 0.0130 0.020 0.000 0 0
P3314 N1364 N1046 42.82 0.0130 0.040 0.000 0 0
P3315 N590 N170 27.81 0.0130 0.470 0.000 0 0
P3316 N1370 N2845 35.63 0.0100 0.000 0.010 0 0
P3317 N592 N1811 16.92 0.0120 0.030 0.010 0 0
P3318 N2612 N831 41.89 0.0100 0.010 0.480 0 0
P3319 N2387 N1879 19.93 0.0130 0.000 0.000 0 0
P3320 N2805 N3930 5.84 0.0130 0.020 0.000 0 0
P3321 N831 N39 10.57 0.0130 0.040 0.250 0 0
D_N1979 N1979 O_N1979 1.0 0.013 0 0 0 0
D_N2255 N2255 O_N2255 1.0 0.013 0 0 0 0
D_N3550 N3550 O_N3550 1.0 0.013 0 0 0 0
D_S1 S1 O_S1 1.0 0.013 0 0 0 0
D_N1783 N1783 O_N1783 1.0 0.013 0 0 0 0
D_S2 S2 O_S2 1.0 0.013 0 0 0 0
D_S3 S3 O_S3 1.0 0.013 0 0 0 0
D_N2530 N2530 O_N2530 1.0 0.013 0 0 0 0
D_N972 N972 O_N972 1.0 0.013 0 0 0 0
D_N4367 N4367 O_N4367 1.0 0.013 0 0 0 0
D_S4 S4 O_S4 1.0 0.013 0 0 0 0
D_N3898 N3898 O_N3898 1.0 0.013 0 0 0 0
D_N3185 N3185 O_N3185 1.0 0.013 0 0 0 0
D_S5 S5 O_S5 1.0 0.013 0 0 0 0
D_N4305 N4305 O_N4305 1.0 0.013 0 0 0 0
D_S6 S6 O_S6 1.0 0.013 0 0 0 0
D_S7 S7 O_S7 1.0 0.013 0 0 0 0
D_S8 S8 O_S8 1.0 0.013 0 0 0 0
D_N3113 N3113 O_N3113 1.0 0.013 0 0 0 0
D_N2282 N2282 O_N2282 1.0 0.013 0 0 0 0
D_N4331 N4331 O_N4331 1.0 0.013 0 0 0 0
D_S9 S9 O_S9 1.0 0.013 0 0 0 0
D_N309 N309 O_N309 1.0 0.013 0 0 0 0
D_N3029 N3029 O_N3029 1.0 0.013 0 0 0 0
D_S10 S10 O_S10 1.0 0.013 0 0 0 0
D_N863 N863 O_N863 1.0 0.013 0 0 0 0
D_N2085 N2085 O_N2085 1.0 0.013 0 0 0 0
D_N701 N701 O_N701 1.0 0.013 0 0 0 0
D_N1722 N1722 O_N1722 1.0 0.013 0 0 0 0
D_N2634 N2634 O_N2634 1.0 0.013 0 0 0 0
D_N549 N549 O_N549 1.0 0.013 0 0 0 0
D_S11 S11 O_S11 1.0 0.013 0 0 0 0
D_N2745 N2745 O_N2745 1.0 0.013 0 0 0 0
D_S12 S12 O_S12 1.0 0.013 0 0 0 0
D_S13 S13 O_S13 1.0 0.013 0 0 0 0
D_N3842 N3842 O_N3842 1.0 0.013 0 0 0 0
D_N647 N647 O_N647 1.0 0.013 0 0 0 0
D_N3135 N3135 O_N3135 1.0 0.013 0 0 0 0
D_N3734 N3734 O_N3734 1.0 0.013 0 0 0 0
D_N2877 N2877 O_N2877 1.0 0.013 0 0 0 0
D_N1464 N1464 O_N1464 1.0 0.013 0 0 0 0
D_S15 S15 O_S15 1.0 0.013 0 0 0 0
D_N373 N373 O_N373 1.0 0.013 0 0 0 0
D_S18 S18 O_S18 1.0 0.013 0 0 0 0
D_N3677 N3677 O_N3677 1.0 0.013 0 0 0 0
D_N853 N853 O_N853 1.0 0.013 0 0 0 0
D_N431 N431 O_N431 1.0 0.013 0 0 0 0
D_S19 S19 O_S19 1.0 0.013 0 0 0 0
D_N2567 N2567 O_N2567 1.0 0.013 0 0 0 0
D_N1376 N1376 O_N1376 1.0 0.013 0 0 0 0
D_N3149 N3149 O_N3149 1.0 0.013 0 0 0 0
D_N3684 N3684 O_N3684 1.0 0.013 0 0 0 0
D_N1657 N1657 O_N1657 1.0 0.013 0 0 0 0
D_S20 S20 O_S20 1.0 0.013 0 0 0 0
D_N3717 N3717 O_N3717 1.0 0.013 0 0 0 0
D_S21 S21 O_S21 1.0 0.013 0 0 0 0
D_N4012 N4012 O_N4012 1.0 0.013 0 0 0 0
D_N2766 N2766 O_N2766 1.0 0.013 0 0 0 0
D_S22 S22 O_S22 1.0 0.013 0 0 0 0
D_N2678 N2678 O_N2678 1.0 0.013 0 0 0 0
D_S27 S27 O_S27 1.0 0.013 0 0 0 0
D_N2700 N2700 O_N2700 1.0 0.013 0 0 0 0
D_N4183 N4183 O_N4183 1.0 0.013 0 0 0 0
D_N2425 N2425 O_N2425 1.0 0.013 0 0 0 0
D_N1653 N1653 O_N1653 1.0 0.013 0 0 0 0
D_S28 S28 O_S28 1.0 0.013 0 0 0 0
D_N1810 N1810 O_N1810 1.0 0.013 0 0 0 0
D_N1868 N1868 O_N1868 1.0 0.013 0 0 0 0
D_N3153 N3153 O_N3153 1.0 0.013 0 0 0 0
D_S30 S30 O_S30 1.0 0.013 0 0 0 0
D_N3932 N3932 O_N3932 1.0 0.013 0 0 0 0
D_N3076 N3076 O_N3076 1.0 0.013 0 0 0 0
D_N1020 N1020 O_N1020 1.0 0.013 0 0 0 0
D_N1235 N1235 O_N1235 1.0 0.013 0 0 0 0
D_S32 S32 O_S32 1.0 0.013 0 0 0 0
D_S33 S33 O_S33 1.0 0.013 0 0 0 0
D_N3485 N3485 O_N3485 1.0 0.013 0 0 0 0
D_N3095 N3095 O_N3095 1.0 0.013 0 0 0 0
D_N3378 N3378 O_N3378 1.0 0.013 0 0 0 0
D_N2911 N2911 O_N2911 1.0 0.013 0 0 0 0
D_S36 S36 O_S36 1.0 0.013 0 0 0 0
D_N2159 N2159 O_N2159 1.0 0.013 0 0 0 0
D_N554 N554 O_N554 1.0 0.013 0 0 0 0
D_N779 N779 O_N779 1.0 0.013 0 0 0 0
D_S37 S37 O_S37 1.0 0.013 0 0 0 0
D_N4340 N4340 O_N4340 1.0 0.013 0 0 0 0
D_N4081 N4081 O_N4081 1.0 0.013 0 0 0 0
D_N253 N253 O_N253 1.0 0.013 0 0 0 0
D_S41 S41 O_S41 1.0 0.013 0 0 0 0
D_S42 S42 O_S42 1.0 0.013 0 0 0 0
D_N4181 N4181 O_N4181 1.0 0.013 0 0 0 0
D_N2832 N2832 O_N2832 1.0 0.013 0 0 0 0
D_S45 S45 O_S45 1.0 0.013 0 0 0 0
D_N1755 N1755 O_N1755 1.0 0.013 0 0 0 0
D_N565 N565 O_N565 1.0 0.013 0 0 0 0
D_S46 S46 O_S46 1.0 0.013 0 0 0 0
D_S47 S47 O_S47 1.0 0.013 0 0 0 0
D_N2125 N2125 O_N2125 1.0 0.013 0 0 0 0
D_N990 N990 O_N990 1.0 0.013 0 0 0 0
D_S49 S49 O_S49 1.0 0.013 0 0 0 0
D_N4334 N4334 O_N4334 1.0 0.013 0 0 0 0
D_S51 S51 O_S51 1.0 0.013 0 0 0 0
D_N3606 N3606 O_N3606 1.0 0.013 0 0 0 0
D_N3824 N3824 O_N3824 1.0 0.013 0 0 0 0
D_N2231 N2231 O_N2231 1.0 0.013 0 0 0 0
D_N1793 N1793 O_N1793 1.0 0.013 0 0 0 0
D_S52 S52 O_S52 1.0 0.013 0 0 0 0
D_N446 N446 O_N446 1.0 0.013 0 0 0 0
D_N3956 N3956 O_N3956 1.0 0.013 0 0 0 0
D_N3384 N3384 O_N3384 1.0 0.013 0 0 0 0
D_S54 S54 O_S54 1.0 0.013 0 0 0 0
D_N2284 N2284 O_N2284 1.0 0.013 0 0 0 0
D_N1395 N1395 O_N1395 1.0 0.013 0 0 0 0
D_N2631 N2631 O_N2631 1.0 0.013 0 0 0 0
D_S56 S56 O_S56 1.0 0.013 0 0 0 0
D_N304 N304 O_N304 1.0 0.013 0 0 0 0
D_N3579 N3579 O_N3579 1.0 0.013 0 0 0 0
D_N3971 N3971 O_N3971 1.0 0.013 0 0 0 0
D_N2651 N2651 O_N2651 1.0 0.013 0 0 0 0
D_N2994 N2994 O_N2994 1.0 0.013 0 0 0 0
D_N2040 N2040 O_N2040 1.0 0.013 0 0 0 0
D_S59 S59 O_S59 1.0 0.013 0 0 0 0
D_S60 S60 O_S60 1.0 0.013 0 0 0 0
D_N3183 N3183 O_N3183 1.0 0.013 0 0 0 0
D_S62 S62 O_S62 1.0 0.013 0 0 0 0
D_N3228 N3228 O_N3228 1.0 0.013 0 0 0 0
D_S63 S63 O_S63 1.0 0.013 0 0 0 0
D_S64 S64 O_S64 1.0 0.013 0 0 0 0
D_N1058 N1058 O_N1058 1.0 0.013 0 0 0 0
D_N335 N335 O_N335 1.0 0.013 0 0 0 0
D_N3751 N3751 O_N3751 1.0 0.013 0 0 0 0
D_S70 S70 O_S70 1.0 0.013 0 0 0 0
D_S71 S71 O_S71 1.0 0.013 0 0 0 0
D_S73 S73 O_S73 1.0 0.013 0 0 0 0
D_N2018 N2018 O_N2018 1.0 0.013 0 0 0 0
D_N1433 N1433 O_N1433 1.0 0.013 0 0 0 0
D_N3420 N3420 O_N3420 1.0 0.013 0 0 0 0
D_N2162 N2162 O_N2162 1.0 0.013 0 0 0 0
D_N649 N649 O_N649 1.0 0.013 0 0 0 0
D_S77 S77 O_S77 1.0 0.013 0 0 0 0
D_N3298 N3298 O_N3298 1.0 0.013 0 0 0 0
D_S78 S78 O_S78 1.0 0.013 0 0 0 0
D_N2169 N2169 O_N2169 1.0 0.013 0 0 0 0
D_N3912 N3912 O_N3912 1.0 0.013 0 0 0 0
D_S83 S83 O_S83 1.0 0.013 0 0 0 0
D_S84 S84 O_S84 1.0 0.013 0 0 0 0
D_S85 S85 O_S85 1.0 0.013 0 0 0 0
D_S86 S86 O_S86 1.0 0.013 0 0 0 0
D_S87 S87 O_S87 1.0 0.013 0 0 0 0
D_S91 S91 O_S91 1.0 0.013 0 0 0 0
D_S92 S92 O_S92 1.0 0.013 0 0 0 0
D_S93 S93 O_S93 1.0 0.013 0 0 0 0
D_N161 N161 O_N161 1.0 0.013 0 0 0 0
D_N2360 N2360 O_N2360 1.0 0.013 0 0 0 0
D_S95 S95 O_S95 1.0 0.013 0 0 0 0

[XSECTIONS]
;;Link Shape Geom1 Geom2 Geom3 Geom4 Barrels
P0 CIRCULAR 0.400 0.000 0 0 1
P1 CIRCULAR 0.234 0.000 0 0 1
P2 CIRCULAR 0.297 0.000 0 0 1
P3 CIRCULAR 0.400 0.000 0 0 1
P4 CIRCULAR 0.188 0.000 0 0 1
P5 CIRCULAR 0.341 0.000 0 0 1
P6 CIRCULAR 0.188 0.000 0 0 1
P7 CIRCULAR 0.400 0.000 0 0 1
P8 CIRCULAR 0.235 0.000 0 0 1
P9 CIRCULAR 0.376 0.000 0 0 1
P10 CIRCULAR 0.593 0.000 0 0 1
P11 CIRCULAR 0.400 0.000 0 0 1
P12 CIRCULAR 0.297 0.000 0 0 1
P13 CIRCULAR 0.297 0.000 0 0 1
P14 CIRCULAR 0.296 0.000 0 0 1
P15 CIRCULAR 0.297 0.000 0 0 1
P16 CIRCULAR 0.297 0.000 0 0 1
P17 CIRCULAR 0.400 0.000 0 0 1
P18 CIRCULAR 0.300 0.000 0 0 1
P19 CIRCULAR 0.700 0.000 0 0 1
P20 CIRCULAR 0.500 0.000 0 0 1
P21 CIRCULAR 0.296 0.000 0 0 1
P22 CIRCULAR 0.297 0.000 0 0 1
P23 CIRCULAR 0.600 0.000 0 0 1
P24 CIRCULAR 0.593 0.000 0 0 1
P25 CIRCULAR 0.500 0.000 0 0 1
P26 CIRCULAR 0.500 0.000 0 0 1
P27 CIRCULAR 0.300 0.000 0 0 1
P28 CIRCULAR 0.375 0.000 0 0 1
P29 CIRCULAR 0.296 0.000 0 0 1
P30 CIRCULAR 0.188 0.000 0 0 1
P31 CIRCULAR 0.600 0.000 0 0 1
P32 CIRCULAR 0.400 0.000 0 0 1
P33 CIRCULAR 0.600 0.000 0 0 1
P34 CIRCULAR 0.297 0.000 0 0 1
P35 CIRCULAR 0.600 0.000 0 0 1
P36 CIRCULAR 0.296 0.000 0 0 1
P37 CIRCULAR 0.300 0.000 0 0 1
P38 CIRCULAR 1.000 0.000 0 0 1
P39 CIRCULAR 0.188 0.000 0 0 1
P40 CIRCULAR 0.700 0.000 0 0 1
P41 CIRCULAR 0.300 0.000 0 0 1
P42 CIRCULAR 0.593 0.000 0 0 1
P43 CIRCULAR 0.235 0.000 0 0 1
P44 CIRCULAR 0.235 0.000 0 0 1
P45 CIRCULAR 0.400 0.000 0 0 1
P46 CIRCULAR 0.235 0.000 0 0 1
P47 CIRCULAR 0.297 0.000 0 0 1
P48 CIRCULAR 0.375 0.000 0 0 1
P49 CIRCULAR 0.400 0.000 0 0 1
P50 CIRCULAR 0.375 0.000 0 0 1
P51 CIRCULAR 0.480 0.000 0 0 1
P52 CIRCULAR 0.600 0.000 0 0 1
P53 CIRCULAR 0.400 0.000 0 0 1
P54 CIRCULAR 0.300 0.000 0 0 1
P55 CIRCULAR 0.296 0.000 0 0 1
P56 CIRCULAR 0.250 0.000 0 0 1
P57 CIRCULAR 0.300 0.000 0 0 1
P58 CIRCULAR 0.300 0.000 0 0 1
P59 CIRCULAR 0.500 0.000 0 0 1
P60 CIRCULAR 0.500 0.000 0 0 1
P61 CIRCULAR 0.300 0.000 0 0 1
P62 CIRCULAR 0.900 0.000 0 0 1
P63 CIRCULAR 0.234 0.000 0 0 1
P64 CIRCULAR 0.297 0.000 0 0 1
P65 CIRCULAR 0.400 0.000 0 0 1
P66 CIRCULAR 0.500 0.000 0 0 1
P67 CIRCULAR 0.297 0.000 0 0 1
P68 CIRCULAR 0.375 0.000 0 0 1
P69 CIRCULAR 0.593 0.000 0 0 1
P70 CIRCULAR 0.400 0.000 0 0 1
P71 CIRCULAR 0.500 0.000 0 0 1
P72 CIRCULAR 0.296 0.000 0 0 1
P73 CIRCULAR 0.375 0.000 0 0 1
P74 CIRCULAR 0.500 0.000 0 0 1
P75 CIRCULAR 0.297 0.000 0 0 1
P76 CIRCULAR 0.500 0.000 0 0 1
P77 CIRCULAR 0.297 0.000 0 0 1
P78 CIRCULAR 0.400 0.000 0 0 1
P79 CIRCULAR 0.500 0.000 0 0 1
P80 CIRCULAR 0.500 0.000 0 0 1
P81 CIRCULAR 0.376 0.000 0 0 1
P82 CIRCULAR 0.297 0.000 0 0 1
P83 CIRCULAR 0.400 0.000 0 0 1
P84 CIRCULAR 0.500 0.000 0 0 1
P85 CIRCULAR 0.400 0.000 0 0 1
P86 CIRCULAR 0.500 0.000 0 0 1
P87 CIRCULAR 0.296 0.000 0 0 1
P88 CIRCULAR 0.235 0.000 0 0 1
P89 CIRCULAR 0.400 0.000 0 0 1
P90 CIRCULAR 0.296 0.000 0 0 1
P91 CIRCULAR 0.400 0.000 0 0 1
P92 CIRCULAR 0.600 0.000 0 0 1
P93 CIRCULAR 0.117 0.000 0 0 1
P94 CIRCULAR 0.150 0.000 0 0 1
P95 CIRCULAR 0.500 0.000 0 0 1
P96 CIRCULAR 0.600 0.000 0 0 1
P97 CIRCULAR 0.250 0.000 0 0 1
P98 CIRCULAR 0.188 0.000 0 0 1
P99 CIRCULAR 0.296 0.000 0 0 1
P100 CIRCULAR 0.550 0.000 0 0 1
P101 CIRCULAR 0.400 0.000 0 0 1
P102 CIRCULAR 0.235 0.000 0 0 1
P103 CIRCULAR 0.700 0.000 0 0 1
P104 CIRCULAR 0.600 0.000 0 0 1
P105 CIRCULAR 0.300 0.000 0 0 1
P106 CIRCULAR 0.296 0.000 0 0 1
P107 CIRCULAR 0.300 0.000 0 0 1
P108 CIRCULAR 0.234 0.000 0 0 1
P109 CIRCULAR 0.600 0.000 0 0 1
P110 CIRCULAR 0.600 0.000 0 0 1
P111 CIRCULAR 0.600 0.000 0 0 1
P112 CIRCULAR 0.500 0.000 0 0 1
P113 CIRCULAR 0.590 0.000 0 0 1
P114 CIRCULAR 0.400 0.000 0 0 1
P115 CIRCULAR 0.600 0.000 0 0 1
P116 CIRCULAR 0.297 0.000 0 0 1
P117 CIRCULAR 0.700 0.000 0 0 1
P118 CIRCULAR 0.400 0.000 0 0 1
P119 CIRCULAR 0.300 0.000 0 0 1
P120 CIRCULAR 0.296 0.000 0 0 1
P121 CIRCULAR 0.300 0.000 0 0 1
P122 CIRCULAR 0.375 0.000 0 0 1
P123 CIRCULAR 0.400 0.000 0 0 1
P124 EGG 0.860 0.000 0 0 1
P125 CIRCULAR 0.500 0.000 0 0 1
P126 CIRCULAR 0.400 0.000 0 0 1
P127 CIRCULAR 0.400 0.000 0 0 1
P128 CIRCULAR 0.297 0.000 0 0 1
P129 CIRCULAR 0.300 0.000 0 0 1
P130 CIRCULAR 0.375 0.000 0 0 1
P131 CIRCULAR 0.600 0.000 0 0 1
P132 CIRCULAR 0.500 0.000 0 0 1
P133 CIRCULAR 0.400 0.000 0 0 1
P134 CIRCULAR 0.375 0.000 0 0 1
P135 CIRCULAR 0.250 0.000 0 0 1
P136 CIRCULAR 0.234 0.000 0 0 1
P137 CIRCULAR 0.296 0.000 0 0 1
P138 CIRCULAR 0.300 0.000 0 0 1
P139 CIRCULAR 0.375 0.000 0 0 1
P140 CIRCULAR 0.300 0.000 0 0 1
P141 CIRCULAR 0.600 0.000 0 0 1
P142 CIRCULAR 0.234 0.000 0 0 1
P143 CIRCULAR 0.375 0.000 0 0 1
P144 CIRCULAR 0.600 0.000 0 0 1
P145 CIRCULAR 0.470 0.000 0 0 1
P146 CIRCULAR 0.250 0.000 0 0 1
P147 CIRCULAR 0.500 0.000 0 0 1
P148 CIRCULAR 0.234 0.000 0 0 1
P149 CIRCULAR 0.296 0.000 0 0 1
P150 CIRCULAR 0.234 0.000 0 0 1
P151 CIRCULAR 0.400 0.000 0 0 1
P152 CIRCULAR 0.296 0.000 0 0 1
P153 CIRCULAR 0.297 0.000 0 0 1
P154 CIRCULAR 0.400 0.000 0 0 1
P155 CIRCULAR 0.600 0.000 0 0 1
P156 CIRCULAR 0.235 0.000 0 0 1
P157 CIRCULAR 0.300 0.000 0 0 1
P158 CIRCULAR 0.593 0.000 0 0 1
P159 CIRCULAR 0.400 0.000 0 0 1
P160 CIRCULAR 0.300 0.000 0 0 1
P161 CIRCULAR 0.290 0.000 0 0 1
P162 CIRCULAR 0.296 0.000 0 0 1
P163 CIRCULAR 0.300 0.000 0 0 1
P164 RECT_CLOSED 0.220 0.220 0 0 1
P165 CIRCULAR 0.297 0.000 0 0 1
P166 CIRCULAR 0.150 0.000 0 0 1
P167 CIRCULAR 0.800 0.000 0 0 1
P168 CIRCULAR 0.296 0.000 0 0 1
P169 CIRCULAR 0.500 0.000 0 0 1
P170 CIRCULAR 0.400 0.000 0 0 1
P171 CIRCULAR 0.400 0.000 0 0 1
P172 CIRCULAR 0.600 0.000 0 0 1
P173 CIRCULAR 0.235 0.000 0 0 1
P174 EGG 0.710 0.000 0 0 1
P175 CIRCULAR 0.296 0.000 0 0 1
P176 CIRCULAR 0.500 0.000 0 0 1
P177 CIRCULAR 0.500 0.000 0 0 1
P178 CIRCULAR 0.900 0.000 0 0 1
P179 CIRCULAR 0.466 0.000 0 0 1
P180 CIRCULAR 0.375 0.000 0 0 1
P181 CIRCULAR 0.600 0.000 0 0 1
P182 CIRCULAR 0.296 0.000 0 0 1
P183 CIRCULAR 0.600 0.000 0 0 1
P184 CIRCULAR 0.235 0.000 0 0 1
P185 CIRCULAR 0.400 0.000 0 0 1
P186 CIRCULAR 0.400 0.000 0 0 1
P187 CIRCULAR 0.150 0.000 0 0 1
P188 CIRCULAR 0.235 0.000 0 0 1
P189 CIRCULAR 0.500 0.000 0 0 1
P190 CIRCULAR 0.400 0.000 0 0 1
P191 CIRCULAR 0.800 0.000 0 0 1
P192 CIRCULAR 0.296 0.000 0 0 1
P193 CIRCULAR 0.297 0.000 0 0 1
P194 CIRCULAR 0.470 0.000 0 0 1
P195 CIRCULAR 0.800 0.000 0 0 1
P196 CIRCULAR 0.296 0.000 0 0 1
P197 CIRCULAR 0.600 0.000 0 0 1
P198 CIRCULAR 0.500 0.000 0 0 1
P199 CIRCULAR 0.296 0.000 0 0 1
P200 CIRCULAR 0.297 0.000 0 0 1
P201 CIRCULAR 0.300 0.000 0 0 1
P202 CIRCULAR 0.600 0.000 0 0 1
P203 CIRCULAR 0.250 0.000 0 0 1
P204 CIRCULAR 0.297 0.000 0 0 1
P205 CIRCULAR 0.297 0.000 0 0 1
P206 CIRCULAR 0.375 0.000 0 0 1
P207 CIRCULAR 0.188 0.000 0 0 1
P208 CIRCULAR 0.400 0.000 0 0 1
P209 CIRCULAR 0.296 0.000 0 0 1
P210 CIRCULAR 0.297 0.000 0 0 1
P211 CIRCULAR 0.297 0.000 0 0 1
P212 CIRCULAR 0.300 0.000 0 0 1
P213 CIRCULAR 0.400 0.000 0 0 1
P214 CIRCULAR 0.296 0.000 0 0 1
P215 CIRCULAR 0.188 0.000 0 0 1
P216 CIRCULAR 0.235 0.000 0 0 1
P217 CIRCULAR 0.235 0.000 0 0 1
P218 CIRCULAR 0.400 0.000 0 0 1
P219 CIRCULAR 0.380 0.000 0 0 1
P220 CIRCULAR 0.297 0.000 0 0 1
P221 EGG 0.596 0.000 0 0 1
P222 CIRCULAR 0.297 0.000 0 0 1
P223 CIRCULAR 0.700 0.000 0 0 1
P224 CIRCULAR 0.300 0.000 0 0 1
P225 CIRCULAR 0.400 0.000 0 0 1
P226 EGG 0.700 0.000 0 0 1
P227 CIRCULAR 0.400 0.000 0 0 1
P228 CIRCULAR 0.375 0.000 0 0 1
P229 CIRCULAR 0.500 0.000 0 0 1
P230 CIRCULAR 0.600 0.000 0 0 1
P231 CIRCULAR 0.375 0.000 0 0 1
P232 CIRCULAR 0.296 0.000 0 0 1
P233 CIRCULAR 0.500 0.000 0 0 1
P234 CIRCULAR 0.400 0.000 0 0 1
P235 CIRCULAR 0.400 0.000 0 0 1
P236 CIRCULAR 0.297 0.000 0 0 1
P237 CIRCULAR 0.400 0.000 0 0 1
P238 CIRCULAR 0.300 0.000 0 0 1
P239 CIRCULAR 0.296 0.000 0 0 1
P240 CIRCULAR 0.600 0.000 0 0 1
P241 CIRCULAR 0.296 0.000 0 0 1
P242 CIRCULAR 0.200 0.000 0 0 1
P243 CIRCULAR 0.400 0.000 0 0 1
P244 CIRCULAR 0.600 0.000 0 0 1
P245 CIRCULAR 0.500 0.000 0 0 1
P246 CIRCULAR 0.188 0.000 0 0 1
P247 CIRCULAR 0.400 0.000 0 0 1
P248 CIRCULAR 0.250 0.000 0 0 1
P249 CIRCULAR 0.600 0.000 0 0 1
P250 CIRCULAR 0.297 0.000 0 0 1
P251 CIRCULAR 0.297 0.000 0 0 1
P252 CIRCULAR 0.296 0.000 0 0 1
P253 CIRCULAR 0.296 0.000 0 0 1
P254 CIRCULAR 0.296 0.000 0 0 1
P255 CIRCULAR 0.580 0.000 0 0 1
P256 CIRCULAR 0.500 0.000 0 0 1
P257 CIRCULAR 0.297 0.000 0 0 1
P258 CIRCULAR 0.400 0.000 0 0 1
P259 CIRCULAR 0.380 0.000 0 0 1
P260 CIRCULAR 0.375 0.000 0 0 1
P261 CIRCULAR 0.375 0.000 0 0 1
P262 CIRCULAR 0.400 0.000 0 0 1
P263 CIRCULAR 0.400 0.000 0 0 1
P264 CIRCULAR 0.700 0.000 0 0 1
P265 CIRCULAR 0.400 0.000 0 0 1
P266 CIRCULAR 0.296 0.000 0 0 1
P267 CIRCULAR 0.296 0.000 0 0 1
P268 CIRCULAR 0.297 0.000 0 0 1
P269 CIRCULAR 0.400 0.000 0 0 1
P270 CIRCULAR 0.376 0.000 0 0 1
P271 CIRCULAR 0.296 0.000 0 0 1
P272 CIRCULAR 0.600 0.000 0 0 1
P273 CIRCULAR 0.188 0.000 0 0 1
P274 CIRCULAR 0.375 0.000 0 0 1
P275 CIRCULAR 0.300 0.000 0 0 1
P276 EGG 0.860 0.000 0 0 1
P277 CIRCULAR 0.500 0.000 0 0 1
P278 CIRCULAR 0.300 0.000 0 0 1
P279 CIRCULAR 0.600 0.000 0 0 1
P280 CIRCULAR 0.500 0.000 0 0 1
P281 CIRCULAR 0.300 0.000 0 0 1
P282 CIRCULAR 0.250 0.000 0 0 1
P283 CIRCULAR 0.297 0.000 0 0 1
P284 CIRCULAR 0.375 0.000 0 0 1
P285 CIRCULAR 0.600 0.000 0 0 1
P286 CIRCULAR 0.500 0.000 0 0 1
P287 CIRCULAR 0.300 0.000 0 0 1
P288 CIRCULAR 0.376 0.000 0 0 1
P289 EGG 0.710 0.000 0 0 1
P290 CIRCULAR 0.300 0.000 0 0 1
P291 CIRCULAR 0.297 0.000 0 0 1
P292 CIRCULAR 0.400 0.000 0 0 1
P293 CIRCULAR 0.235 0.000 0 0 1
P294 CIRCULAR 0.400 0.000 0 0 1
P295 CIRCULAR 0.297 0.000 0 0 1
P296 CIRCULAR 0.300 0.000 0 0 1
P297 CIRCULAR 0.500 0.000 0 0 1
P298 CIRCULAR 0.188 0.000 0 0 1
P299 RECT_CLOSED 0.220 0.220 0 0 1
P300 CIRCULAR 0.297 0.000 0 0 1
P301 CIRCULAR 0.235 0.000 0 0 1
P302 CIRCULAR 0.800 0.000 0 0 1
P303 CIRCULAR 0.188 0.000 0 0 1
P304 CIRCULAR 0.297 0.000 0 0 1
P305 CIRCULAR 1.200 0.000 0 0 1
P306 CIRCULAR 0.400 0.000 0 0 1
P307 CIRCULAR 0.234 0.000 0 0 1
P308 CIRCULAR 0.300 0.000 0 0 1
P309 CIRCULAR 0.296 0.000 0 0 1
P310 CIRCULAR 0.297 0.000 0 0 1
P311 CIRCULAR 0.300 0.000 0 0 1
P312 CIRCULAR 0.400 0.000 0 0 1
P313 CIRCULAR 0.400 0.000 0 0 1
P314 CIRCULAR 0.600 0.000 0 0 1
P315 CIRCULAR 0.300 0.000 0 0 1
P316 CIRCULAR 0.500 0.000 0 0 1
P317 CIRCULAR 0.117 0.000 0 0 1
P318 CIRCULAR 0.297 0.000 0 0 1
P319 CIRCULAR 0.234 0.000 0 0 1
P320 CIRCULAR 0.188 0.000 0 0 1
P321 RECT_CLOSED 1.100 0.990 0 0 1
P322 CIRCULAR 0.300 0.000 0 0 1
P323 CIRCULAR 0.500 0.000 0 0 1
P324 CIRCULAR 0.400 0.000 0 0 1
P325 CIRCULAR 0.400 0.000 0 0 1
P326 CIRCULAR 0.470 0.000 0 0 1
P327 CIRCULAR 0.500 0.000 0 0 1
P328 CIRCULAR 0.376 0.000 0 0 1
P329 CIRCULAR 0.188 0.000 0 0 1
P330 CIRCULAR 0.297 0.000 0 0 1
P331 CIRCULAR 0.480 0.000 0 0 1
P332 CIRCULAR 0.400 0.000 0 0 1
P333 CIRCULAR 0.376 0.000 0 0 1
P334 CIRCULAR 0.297 0.000 0 0 1
P335 CIRCULAR 0.400 0.000 0 0 1
P336 CIRCULAR 0.297 0.000 0 0 1
P337 CIRCULAR 0.188 0.000 0 0 1
P338 RECT_CLOSED 0.700 0.500 0 0 1
P339 CIRCULAR 0.400 0.000 0 0 1
P340 CIRCULAR 0.800 0.000 0 0 1
P341 CIRCULAR 0.500 0.000 0 0 1
P342 CIRCULAR 0.300 0.000 0 0 1
P343 CIRCULAR 0.400 0.000 0 0 1
P344 CIRCULAR 0.250 0.000 0 0 1
P345 CIRCULAR 0.296 0.000 0 0 1
P346 CIRCULAR 0.375 0.000 0 0 1
P347 CIRCULAR 0.250 0.000 0 0 1
P348 CIRCULAR 0.400 0.000 0 0 1
P349 CIRCULAR 0.600 0.000 0 0 1
P350 CIRCULAR 0.500 0.000 0 0 1
P351 CIRCULAR 0.375 0.000 0 0 1
P352 CIRCULAR 0.300 0.000 0 0 1
P353 CIRCULAR 0.400 0.000 0 0 1
P354 CIRCULAR 0.296 0.000 0 0 1
P355 CIRCULAR 0.296 0.000 0 0 1
P356 RECT_CLOSED 0.220 0.220 0 0 1
P357 CIRCULAR 0.400 0.000 0 0 1
P358 CIRCULAR 0.297 0.000 0 0 1
P359 CIRCULAR 0.800 0.000 0 0 1
P360 CIRCULAR 0.300 0.000 0 0 1
P361 CIRCULAR 0.300 0.000 0 0 1
P362 CIRCULAR 0.800 0.000 0 0 1
P363 CIRCULAR 0.500 0.000 0 0 1
P364 CIRCULAR 0.700 0.000 0 0 1
P365 CIRCULAR 0.500 0.000 0 0 1
P366 CIRCULAR 0.296 0.000 0 0 1
P367 CIRCULAR 0.297 0.000 0 0 1
P368 CIRCULAR 0.235 0.000 0 0 1
P369 CIRCULAR 0.300 0.000 0 0 1
P370 CIRCULAR 0.235 0.000 0 0 1
P371 CIRCULAR 0.466 0.000 0 0 1
P372 CIRCULAR 0.297 0.000 0 0 1
P373 CIRCULAR 0.234 0.000 0 0 1
P374 CIRCULAR 0.400 0.000 0 0 1
P375 CIRCULAR 0.400 0.000 0 0 1
P376 CIRCULAR 0.700 0.000 0 0 1
P377 CIRCULAR 0.375 0.000 0 0 1
P378 CIRCULAR 0.297 0.000 0 0 1
P379 CIRCULAR 0.500 0.000 0 0 1
P380 CIRCULAR 0.470 0.000 0 0 1
P381 CIRCULAR 0.300 0.000 0 0 1
P382 CIRCULAR 0.600 0.000 0 0 1
P383 CIRCULAR 0.376 0.000 0 0 1
P384 CIRCULAR 0.296 0.000 0 0 1
P385 CIRCULAR 1.000 0.000 0 0 1
P386 CIRCULAR 0.600 0.000 0 0 1
P387 CIRCULAR 0.400 0.000 0 0 1
P388 CIRCULAR 0.297 0.000 0 0 1
P389 CIRCULAR 0.600 0.000 0 0 1
P390 CIRCULAR 0.500 0.000 0 0 1
P391 CIRCULAR 0.300 0.000 0 0 1
P392 CIRCULAR 0.234 0.000 0 0 1
P393 CIRCULAR 0.500 0.000 0 0 1
P394 CIRCULAR 0.470 0.000 0 0 1
P395 CIRCULAR 0.375 0.000 0 0 1
P396 CIRCULAR 0.296 0.000 0 0 1
P397 CIRCULAR 0.300 0.000 0 0 1
P398 CIRCULAR 0.300 0.000 0 0 1
P399 CIRCULAR 0.297 0.000 0 0 1
P400 CIRCULAR 0.296 0.000 0 0 1
P401 CIRCULAR 0.297 0.000 0 0 1
P402 CIRCULAR 0.188 0.000 0 0 1
P403 CIRCULAR 0.296 0.000 0 0 1
P404 CIRCULAR 0.297 0.000 0 0 1
P405 CIRCULAR 0.375 0.000 0 0 1
P406 CIRCULAR 0.500 0.000 0 0 1
P407 CIRCULAR 0.300 0.000 0 0 1
P408 CIRCULAR 0.375 0.000 0 0 1
P409 CIRCULAR 0.296 0.000 0 0 1
P410 CIRCULAR 0.700 0.000 0 0 1
P411 CIRCULAR 0.400 0.000 0 0 1
P412 CIRCULAR 0.188 0.000 0 0 1
P413 CIRCULAR 0.297 0.000 0 0 1
P414 CIRCULAR 0.800 0.000 0 0 1
P415 CIRCULAR 0.297 0.000 0 0 1
P416 CIRCULAR 0.234 0.000 0 0 1
P417 CIRCULAR 0.400 0.000 0 0 1
P418 CIRCULAR 0.296 0.000 0 0 1
P419 CIRCULAR 0.296 0.000 0 0 1
P420 CIRCULAR 0.235 0.000 0 0 1
P421 CIRCULAR 0.300 0.000 0 0 1
P422 CIRCULAR 0.376 0.000 0 0 1
P423 CIRCULAR 0.600 0.000 0 0 1
P424 CIRCULAR 0.375 0.000 0 0 1
P425 CIRCULAR 0.296 0.000 0 0 1
P426 CIRCULAR 0.296 0.000 0 0 1
P427 CIRCULAR 0.235 0.000 0 0 1
P428 RECT_CLOSED 0.220 0.220 0 0 1
P429 CIRCULAR 0.296 0.000 0 0 1
P430 EGG 0.710 0.000 0 0 1
P431 CIRCULAR 0.500 0.000 0 0 1
P432 CIRCULAR 0.296 0.000 0 0 1
P433 CIRCULAR 0.500 0.000 0 0 1
P434 CIRCULAR 0.700 0.000 0 0 1
P435 CIRCULAR 0.300 0.000 0 0 1
P436 CIRCULAR 0.296 0.000 0 0 1
P437 CIRCULAR 0.188 0.000 0 0 1
P438 CIRCULAR 0.400 0.000 0 0 1
P439 CIRCULAR 0.296 0.000 0 0 1
P440 CIRCULAR 0.296 0.000 0 0 1
P441 CIRCULAR 0.600 0.000 0 0 1
P442 CIRCULAR 0.375 0.000 0 0 1
P443 CIRCULAR 0.600 0.000 0 0 1
P444 CIRCULAR 0.300 0.000 0 0 1
P445 CIRCULAR 0.470 0.000 0 0 1
P446 CIRCULAR 0.300 0.000 0 0 1
P447 CIRCULAR 0.600 0.000 0 0 1
P448 CIRCULAR 0.500 0.000 0 0 1
P449 CIRCULAR 0.297 0.000 0 0 1
P450 CIRCULAR 0.297 0.000 0 0 1
P451 CIRCULAR 0.297 0.000 0 0 1
P452 CIRCULAR 0.400 0.000 0 0 1
P453 CIRCULAR 0.480 0.000 0 0 1
P454 CIRCULAR 0.300 0.000 0 0 1
P455 CIRCULAR 0.250 0.000 0 0 1
P456 CIRCULAR 0.400 0.000 0 0 1
P457 CIRCULAR 0.297 0.000 0 0 1
P458 CIRCULAR 0.297 0.000 0 0 1
P459 CIRCULAR 0.600 0.000 0 0 1
P460 CIRCULAR 0.400 0.000 0 0 1
P461 CIRCULAR 0.500 0.000 0 0 1
P462 CIRCULAR 0.375 0.000 0 0 1
P463 CIRCULAR 0.500 0.000 0 0 1
P464 CIRCULAR 0.500 0.000 0 0 1
P465 CIRCULAR 0.296 0.000 0 0 1
P466 CIRCULAR 0.376 0.000 0 0 1
P467 CIRCULAR 0.250 0.000 0 0 1
P468 CIRCULAR 0.375 0.000 0 0 1
P469 CIRCULAR 0.250 0.000 0 0 1
P470 CIRCULAR 0.296 0.000 0 0 1
P471 CIRCULAR 0.400 0.000 0 0 1
P472 CIRCULAR 0.400 0.000 0 0 1
P473 CIRCULAR 0.396 0.000 0 0 1
P474 CIRCULAR 0.300 0.000 0 0 1
P475 CIRCULAR 0.400 0.000 0 0 1
P476 CIRCULAR 0.296 0.000 0 0 1
P477 CIRCULAR 0.400 0.000 0 0 1
P478 CIRCULAR 0.500 0.000 0 0 1
P479 CIRCULAR 0.250 0.000 0 0 1
P480 CIRCULAR 0.500 0.000 0 0 1
P481 CIRCULAR 0.188 0.000 0 0 1
P482 CIRCULAR 0.700 0.000 0 0 1
P483 CIRCULAR 0.400 0.000 0 0 1
P484 CIRCULAR 0.500 0.000 0 0 1
P485 CIRCULAR 0.296 0.000 0 0 1
P486 CIRCULAR 0.300 0.000 0 0 1
P487 CIRCULAR 0.600 0.000 0 0 1
P488 CIRCULAR 0.500 0.000 0 0 1
P489 CIRCULAR 0.500 0.000 0 0 1
P490 CIRCULAR 0.800 0.000 0 0 1
P491 CIRCULAR 0.250 0.000 0 0 1
P492 CIRCULAR 0.296 0.000 0 0 1
P493 CIRCULAR 0.235 0.000 0 0 1
P494 CIRCULAR 0.600 0.000 0 0 1
P495 CIRCULAR 0.300 0.000 0 0 1
P496 CIRCULAR 0.297 0.000 0 0 1
P497 CIRCULAR 0.300 0.000 0 0 1
P498 CIRCULAR 0.480 0.000 0 0 1
P499 CIRCULAR 0.188 0.000 0 0 1
P500 CIRCULAR 0.300 0.000 0 0 1
P501 CIRCULAR 0.466 0.000 0 0 1
P502 CIRCULAR 0.500 0.000 0 0 1
P503 CIRCULAR 0.376 0.000 0 0 1
P504 CIRCULAR 0.700 0.000 0 0 1
P505 CIRCULAR 0.296 0.000 0 0 1
P506 CIRCULAR 0.366 0.000 0 0 1
P507 CIRCULAR 0.380 0.000 0 0 1
P508 CIRCULAR 0.300 0.000 0 0 1
P509 CIRCULAR 0.117 0.000 0 0 1
P510 CIRCULAR 0.375 0.000 0 0 1
P511 CIRCULAR 0.296 0.000 0 0 1
P512 CIRCULAR 0.593 0.000 0 0 1
P513 CIRCULAR 0.400 0.000 0 0 1
P514 CIRCULAR 0.375 0.000 0 0 1
P515 CIRCULAR 0.300 0.000 0 0 1
P516 CIRCULAR 0.400 0.000 0 0 1
P517 CIRCULAR 0.376 0.000 0 0 1
P518 CIRCULAR 0.297 0.000 0 0 1
P519 CIRCULAR 0.296 0.000 0 0 1
P520 CIRCULAR 0.250 0.000 0 0 1
P521 CIRCULAR 0.400 0.000 0 0 1
P522 CIRCULAR 0.500 0.000 0 0 1
P523 CIRCULAR 0.300 0.000 0 0 1
P524 CIRCULAR 0.296 0.000 0 0 1
P525 CIRCULAR 0.297 0.000 0 0 1
P526 CIRCULAR 0.117 0.000 0 0 1
P527 CIRCULAR 0.400 0.000 0 0 1
P528 CIRCULAR 0.188 0.000 0 0 1
P529 CIRCULAR 0.188 0.000 0 0 1
P530 CIRCULAR 0.600 0.000 0 0 1
P531 CIRCULAR 0.188 0.000 0 0 1
P532 CIRCULAR 0.400 0.000 0 0 1
P533 CIRCULAR 0.297 0.000 0 0 1
P534 CIRCULAR 0.235 0.000 0 0 1
P535 CIRCULAR 0.375 0.000 0 0 1
P536 CIRCULAR 0.296 0.000 0 0 1
P537 CIRCULAR 0.296 0.000 0 0 1
P538 CIRCULAR 0.400 0.000 0 0 1
P539 CIRCULAR 0.296 0.000 0 0 1
P540 CIRCULAR 0.375 0.000 0 0 1
P541 CIRCULAR 0.500 0.000 0 0 1
P542 CIRCULAR 0.235 0.000 0 0 1
P543 CIRCULAR 0.235 0.000 0 0 1
P544 CIRCULAR 0.500 0.000 0 0 1
P545 CIRCULAR 0.500 0.000 0 0 1
P546 CIRCULAR 0.375 0.000 0 0 1
P547 CIRCULAR 0.400 0.000 0 0 1
P548 CIRCULAR 0.400 0.000 0 0 1
P549 CIRCULAR 0.300 0.000 0 0 1
P550 CIRCULAR 0.297 0.000 0 0 1
P551 CIRCULAR 0.400 0.000 0 0 1
P552 CIRCULAR 0.300 0.000 0 0 1
P553 CIRCULAR 0.188 0.000 0 0 1
P554 CIRCULAR 0.300 0.000 0 0 1
P555 CIRCULAR 0.297 0.000 0 0 1
P556 CIRCULAR 0.235 0.000 0 0 1
P557 CIRCULAR 0.600 0.000 0 0 1
P558 CIRCULAR 0.400 0.000 0 0 1
P559 CIRCULAR 0.200 0.000 0 0 1
P560 CIRCULAR 0.500 0.000 0 0 1
P561 CIRCULAR 0.234 0.000 0 0 1
P562 CIRCULAR 0.235 0.000 0 0 1
P563 CIRCULAR 0.600 0.000 0 0 1
P564 CIRCULAR 0.296 0.000 0 0 1
P565 CIRCULAR 0.500 0.000 0 0 1
P566 CIRCULAR 0.300 0.000 0 0 1
P567 CIRCULAR 0.296 0.000 0 0 1
P568 CIRCULAR 0.400 0.000 0 0 1
P569 CIRCULAR 0.375 0.000 0 0 1
P570 CIRCULAR 0.400 0.000 0 0 1
P571 CIRCULAR 0.400 0.000 0 0 1
P572 RECT_CLOSED 0.220 0.220 0 0 1
P573 CIRCULAR 0.470 0.000 0 0 1
P574 CIRCULAR 0.400 0.000 0 0 1
P575 CIRCULAR 0.296 0.000 0 0 1
P576 CIRCULAR 0.466 0.000 0 0 1
P577 RECT_CLOSED 0.220 0.220 0 0 1
P578 CIRCULAR 0.400 0.000 0 0 1
P579 CIRCULAR 0.297 0.000 0 0 1
P580 CIRCULAR 0.400 0.000 0 0 1
P581 CIRCULAR 0.297 0.000 0 0 1
P582 CIRCULAR 0.500 0.000 0 0 1
P583 CIRCULAR 0.700 0.000 0 0 1
P584 CIRCULAR 0.375 0.000 0 0 1
P585 CIRCULAR 0.296 0.000 0 0 1
P586 CIRCULAR 0.390 0.000 0 0 1
P587 CIRCULAR 0.400 0.000 0 0 1
P588 CIRCULAR 0.297 0.000 0 0 1
P589 CIRCULAR 0.188 0.000 0 0 1
P590 CIRCULAR 0.700 0.000 0 0 1
P591 CIRCULAR 0.600 0.000 0 0 1
P592 CIRCULAR 0.297 0.000 0 0 1
P593 CIRCULAR 0.296 0.000 0 0 1
P594 CIRCULAR 0.296 0.000 0 0 1
P595 CIRCULAR 0.400 0.000 0 0 1
P596 CIRCULAR 0.954 0.000 0 0 1
P597 CIRCULAR 0.400 0.000 0 0 1
P598 CIRCULAR 0.400 0.000 0 0 1
P599 CIRCULAR 0.400 0.000 0 0 1
P600 CIRCULAR 0.188 0.000 0 0 1
P601 CIRCULAR 0.600 0.000 0 0 1
P602 CIRCULAR 0.500 0.000 0 0 1
P603 CIRCULAR 0.296 0.000 0 0 1
P604 CIRCULAR 0.600 0.000 0 0 1
P605 CIRCULAR 0.297 0.000 0 0 1
P606 CIRCULAR 0.300 0.000 0 0 1
P607 CIRCULAR 0.188 0.000 0 0 1
P608 CIRCULAR 0.376 0.000 0 0 1
P609 CIRCULAR 0.400 0.000 0 0 1
P610 CIRCULAR 0.188 0.000 0 0 1
P611 CIRCULAR 0.500 0.000 0 0 1
P612 CIRCULAR 0.500 0.000 0 0 1
P613 CIRCULAR 0.600 0.000 0 0 1
P614 CIRCULAR 0.376 0.000 0 0 1
P615 CIRCULAR 0.600 0.000 0 0 1
P616 CIRCULAR 0.375 0.000 0 0 1
P617 CIRCULAR 0.235 0.000 0 0 1
P618 CIRCULAR 0.400 0.000 0 0 1
P619 CIRCULAR 0.375 0.000 0 0 1
P620 CIRCULAR 0.188 0.000 0 0 1
P621 CIRCULAR 0.297 0.000 0 0 1
P622 CIRCULAR 0.297 0.000 0 0 1
P623 CIRCULAR 0.375 0.000 0 0 1
P624 CIRCULAR 0.500 0.000 0 0 1
P625 CIRCULAR 0.296 0.000 0 0 1
P626 CIRCULAR 0.188 0.000 0 0 1
P627 CIRCULAR 0.234 0.000 0 0 1
P628 CIRCULAR 0.400 0.000 0 0 1
P629 CIRCULAR 0.400 0.000 0 0 1
P630 CIRCULAR 0.297 0.000 0 0 1
P631 CIRCULAR 0.235 0.000 0 0 1
P632 CIRCULAR 0.800 0.000 0 0 1
P633 CIRCULAR 0.296 0.000 0 0 1
P634 CIRCULAR 0.235 0.000 0 0 1
P635 CIRCULAR 0.375 0.000 0 0 1
P636 CIRCULAR 0.375 0.000 0 0 1
P637 CIRCULAR 0.375 0.000 0 0 1
P638 CIRCULAR 0.500 0.000 0 0 1
P639 CIRCULAR 0.376 0.000 0 0 1
P640 CIRCULAR 0.375 0.000 0 0 1
P641 CIRCULAR 0.297 0.000 0 0 1
P642 CIRCULAR 0.375 0.000 0 0 1
P643 CIRCULAR 0.297 0.000 0 0 1
P644 CIRCULAR 0.400 0.000 0 0 1
P645 CIRCULAR 0.600 0.000 0 0 1
P646 CIRCULAR 0.500 0.000 0 0 1
P647 CIRCULAR 0.500 0.000 0 0 1
P648 CIRCULAR 0.296 0.000 0 0 1
P649 CIRCULAR 0.400 0.000 0 0 1
P650 CIRCULAR 0.700 0.000 0 0 1
P651 CIRCULAR 0.296 0.000 0 0 1
P652 CIRCULAR 0.296 0.000 0 0 1
P653 CIRCULAR 0.700 0.000 0 0 1
P654 CIRCULAR 0.235 0.000 0 0 1
P655 CIRCULAR 0.296 0.000 0 0 1
P656 CIRCULAR 0.376 0.000 0 0 1
P657 RECT_CLOSED 0.500 0.300 0 0 1
P658 CIRCULAR 0.380 0.000 0 0 1
P659 CIRCULAR 0.300 0.000 0 0 1
P660 CIRCULAR 0.296 0.000 0 0 1
P661 CIRCULAR 0.117 0.000 0 0 1
P662 CIRCULAR 0.188 0.000 0 0 1
P663 CIRCULAR 0.296 0.000 0 0 1
P664 CIRCULAR 0.235 0.000 0 0 1
P665 CIRCULAR 0.235 0.000 0 0 1
P666 EGG 0.860 0.000 0 0 1
P667 CIRCULAR 0.150 0.000 0 0 1
P668 CIRCULAR 0.250 0.000 0 0 1
P669 CIRCULAR 1.000 0.000 0 0 1
P670 CIRCULAR 0.296 0.000 0 0 1
P671 CIRCULAR 0.500 0.000 0 0 1
P672 CIRCULAR 0.500 0.000 0 0 1
P673 CIRCULAR 0.400 0.000 0 0 1
P674 CIRCULAR 0.500 0.000 0 0 1
P675 CIRCULAR 0.300 0.000 0 0 1
P676 CIRCULAR 0.300 0.000 0 0 1
P677 CIRCULAR 0.188 0.000 0 0 1
P678 CIRCULAR 0.297 0.000 0 0 1
P679 CIRCULAR 0.375 0.000 0 0 1
P680 CIRCULAR 0.400 0.000 0 0 1
P681 CIRCULAR 0.296 0.000 0 0 1
P682 CIRCULAR 0.296 0.000 0 0 1
P683 CIRCULAR 0.235 0.000 0 0 1
P684 CIRCULAR 0.296 0.000 0 0 1
P685 EGG 0.710 0.000 0 0 1
P686 CIRCULAR 0.480 0.000 0 0 1
P687 CIRCULAR 1.200 0.000 0 0 1
P688 CIRCULAR 0.480 0.000 0 0 1
P689 CIRCULAR 0.235 0.000 0 0 1
P690 CIRCULAR 0.300 0.000 0 0 1
P691 CIRCULAR 0.250 0.000 0 0 1
P692 CIRCULAR 0.470 0.000 0 0 1
P693 CIRCULAR 0.300 0.000 0 0 1
P694 CIRCULAR 0.700 0.000 0 0 1
P695 CIRCULAR 0.590 0.000 0 0 1
P696 CIRCULAR 0.500 0.000 0 0 1
P697 CIRCULAR 0.400 0.000 0 0 1
P698 CIRCULAR 0.600 0.000 0 0 1
P699 CIRCULAR 0.400 0.000 0 0 1
P700 CIRCULAR 0.150 0.000 0 0 1
P701 CIRCULAR 0.297 0.000 0 0 1
P702 CIRCULAR 0.466 0.000 0 0 1
P703 CIRCULAR 0.300 0.000 0 0 1
P704 CIRCULAR 0.600 0.000 0 0 1
P705 CIRCULAR 0.235 0.000 0 0 1
P706 CIRCULAR 0.234 0.000 0 0 1
P707 RECT_CLOSED 0.900 0.500 0 0 1
P708 CIRCULAR 0.300 0.000 0 0 1
P709 CIRCULAR 0.235 0.000 0 0 1
P710 CIRCULAR 0.188 0.000 0 0 1
P711 CIRCULAR 0.300 0.000 0 0 1
P712 CIRCULAR 0.500 0.000 0 0 1
P713 CIRCULAR 0.234 0.000 0 0 1
P714 CIRCULAR 0.297 0.000 0 0 1
P715 CIRCULAR 0.400 0.000 0 0 1
P716 CIRCULAR 0.400 0.000 0 0 1
P717 CIRCULAR 0.600 0.000 0 0 1
P718 CIRCULAR 0.600 0.000 0 0 1
P719 CIRCULAR 0.400 0.000 0 0 1
P720 CIRCULAR 0.300 0.000 0 0 1
P721 CIRCULAR 0.300 0.000 0 0 1
P722 CIRCULAR 0.400 0.000 0 0 1
P723 CIRCULAR 0.296 0.000 0 0 1
P724 CIRCULAR 0.400 0.000 0 0 1
P725 CIRCULAR 0.400 0.000 0 0 1
P726 CIRCULAR 0.593 0.000 0 0 1
P727 CIRCULAR 0.600 0.000 0 0 1
P728 CIRCULAR 0.600 0.000 0 0 1
P729 CIRCULAR 0.400 0.000 0 0 1
P730 CIRCULAR 0.500 0.000 0 0 1
P731 CIRCULAR 0.375 0.000 0 0 1
P732 CIRCULAR 0.297 0.000 0 0 1
P733 CIRCULAR 0.250 0.000 0 0 1
P734 CIRCULAR 0.250 0.000 0 0 1
P735 CIRCULAR 0.375 0.000 0 0 1
P736 CIRCULAR 0.296 0.000 0 0 1
P737 CIRCULAR 0.296 0.000 0 0 1
P738 CIRCULAR 0.296 0.000 0 0 1
P739 CIRCULAR 0.500 0.000 0 0 1
P740 CIRCULAR 0.375 0.000 0 0 1
P741 CIRCULAR 0.375 0.000 0 0 1
P742 CIRCULAR 0.188 0.000 0 0 1
P743 CIRCULAR 0.296 0.000 0 0 1
P744 CIRCULAR 0.375 0.000 0 0 1
P745 CIRCULAR 0.297 0.000 0 0 1
P746 CIRCULAR 0.700 0.000 0 0 1
P747 CIRCULAR 0.400 0.000 0 0 1
P748 CIRCULAR 0.600 0.000 0 0 1
P749 CIRCULAR 0.297 0.000 0 0 1
P750 CIRCULAR 0.296 0.000 0 0 1
P751 CIRCULAR 0.300 0.000 0 0 1
P752 CIRCULAR 0.296 0.000 0 0 1
P753 CIRCULAR 0.296 0.000 0 0 1
P754 CIRCULAR 0.400 0.000 0 0 1
P755 CIRCULAR 0.297 0.000 0 0 1
P756 CIRCULAR 0.250 0.000 0 0 1
P757 CIRCULAR 0.375 0.000 0 0 1
P758 CIRCULAR 0.300 0.000 0 0 1
P759 CIRCULAR 0.297 0.000 0 0 1
P760 CIRCULAR 0.296 0.000 0 0 1
P761 CIRCULAR 0.296 0.000 0 0 1
P762 CIRCULAR 0.296 0.000 0 0 1
P763 CIRCULAR 0.296 0.000 0 0 1
P764 CIRCULAR 0.296 0.000 0 0 1
P765 CIRCULAR 0.600 0.000 0 0 1
P766 CIRCULAR 0.297 0.000 0 0 1
P767 CIRCULAR 0.400 0.000 0 0 1
P768 CIRCULAR 0.297 0.000 0 0 1
P769 CIRCULAR 0.800 0.000 0 0 1
P770 RECT_CLOSED 0.220 0.220 0 0 1
P771 CIRCULAR 0.600 0.000 0 0 1
P772 CIRCULAR 0.593 0.000 0 0 1
P773 CIRCULAR 0.235 0.000 0 0 1
P774 CIRCULAR 0.500 0.000 0 0 1
P775 CIRCULAR 0.400 0.000 0 0 1
P776 CIRCULAR 0.296 0.000 0 0 1
P777 CIRCULAR 0.296 0.000 0 0 1
P778 CIRCULAR 0.500 0.000 0 0 1
P779 CIRCULAR 0.296 0.000 0 0 1
P780 CIRCULAR 0.188 0.000 0 0 1
P781 CIRCULAR 0.235 0.000 0 0 1
P782 CIRCULAR 0.296 0.000 0 0 1
P783 CIRCULAR 0.188 0.000 0 0 1
P784 CIRCULAR 0.297 0.000 0 0 1
P785 CIRCULAR 0.800 0.000 0 0 1
P786 CIRCULAR 0.375 0.000 0 0 1
P787 CIRCULAR 0.376 0.000 0 0 1
P788 CIRCULAR 0.188 0.000 0 0 1
P789 CIRCULAR 0.600 0.000 0 0 1
P790 CIRCULAR 0.296 0.000 0 0 1
P791 CIRCULAR 0.296 0.000 0 0 1
P792 CIRCULAR 0.296 0.000 0 0 1
P793 CIRCULAR 0.250 0.000 0 0 1
P794 CIRCULAR 0.593 0.000 0 0 1
P795 CIRCULAR 0.296 0.000 0 0 1
P796 CIRCULAR 0.235 0.000 0 0 1
P797 CIRCULAR 0.600 0.000 0 0 1
P798 CIRCULAR 0.297 0.000 0 0 1
P799 CIRCULAR 0.296 0.000 0 0 1
P800 CIRCULAR 0.300 0.000 0 0 1
P801 CIRCULAR 0.235 0.000 0 0 1
P802 CIRCULAR 0.400 0.000 0 0 1
P803 CIRCULAR 0.375 0.000 0 0 1
P804 CIRCULAR 0.470 0.000 0 0 1
P805 CIRCULAR 1.000 0.000 0 0 1
P806 CIRCULAR 0.300 0.000 0 0 1
P807 CIRCULAR 0.235 0.000 0 0 1
P808 CIRCULAR 0.376 0.000 0 0 1
P809 CIRCULAR 0.296 0.000 0 0 1
P810 CIRCULAR 0.296 0.000 0 0 1
P811 CIRCULAR 0.297 0.000 0 0 1
P812 CIRCULAR 0.300 0.000 0 0 1
P813 CIRCULAR 0.300 0.000 0 0 1
P814 CIRCULAR 0.500 0.000 0 0 1
P815 CIRCULAR 0.500 0.000 0 0 1
P816 CIRCULAR 0.296 0.000 0 0 1
P817 CIRCULAR 0.593 0.000 0 0 1
P818 CIRCULAR 0.600 0.000 0 0 1
P819 CIRCULAR 0.376 0.000 0 0 1
P820 CIRCULAR 0.500 0.000 0 0 1
P821 CIRCULAR 1.200 0.000 0 0 1
P822 CIRCULAR 0.296 0.000 0 0 1
P823 CIRCULAR 0.300 0.000 0 0 1
P824 CIRCULAR 0.600 0.000 0 0 1
P825 CIRCULAR 0.300 0.000 0 0 1
P826 CIRCULAR 1.000 0.000 0 0 1
P827 CIRCULAR 0.600 0.000 0 0 1
P828 CIRCULAR 0.375 0.000 0 0 1
P829 CIRCULAR 0.235 0.000 0 0 1
P830 CIRCULAR 0.600 0.000 0 0 1
P831 CIRCULAR 0.470 0.000 0 0 1
P832 CIRCULAR 0.297 0.000 0 0 1
P833 CIRCULAR 0.400 0.000 0 0 1
P834 CIRCULAR 0.376 0.000 0 0 1
P835 CIRCULAR 0.297 0.000 0 0 1
P836 CIRCULAR 1.000 0.000 0 0 1
P837 CIRCULAR 0.235 0.000 0 0 1
P838 CIRCULAR 0.600 0.000 0 0 1
P839 CIRCULAR 0.375 0.000 0 0 1
P840 CIRCULAR 0.296 0.000 0 0 1
P841 CIRCULAR 0.375 0.000 0 0 1
P842 CIRCULAR 0.250 0.000 0 0 1
P843 CIRCULAR 0.200 0.000 0 0 1
P844 CIRCULAR 0.297 0.000 0 0 1
P845 CIRCULAR 0.600 0.000 0 0 1
P846 CIRCULAR 0.300 0.000 0 0 1
P847 CIRCULAR 0.297 0.000 0 0 1
P848 CIRCULAR 0.297 0.000 0 0 1
P849 CIRCULAR 0.300 0.000 0 0 1
P850 CIRCULAR 0.235 0.000 0 0 1
P851 CIRCULAR 0.296 0.000 0 0 1
P852 CIRCULAR 0.296 0.000 0 0 1
P853 CIRCULAR 0.500 0.000 0 0 1
P854 CIRCULAR 0.600 0.000 0 0 1
P855 CIRCULAR 0.296 0.000 0 0 1
P856 CIRCULAR 0.600 0.000 0 0 1
P857 CIRCULAR 0.375 0.000 0 0 1
P858 CIRCULAR 0.400 0.000 0 0 1
P859 CIRCULAR 0.600 0.000 0 0 1
P860 CIRCULAR 0.375 0.000 0 0 1
P861 CIRCULAR 0.500 0.000 0 0 1
P862 CIRCULAR 0.600 0.000 0 0 1
P863 CIRCULAR 0.188 0.000 0 0 1
P864 CIRCULAR 0.400 0.000 0 0 1
P865 CIRCULAR 0.296 0.000 0 0 1
P866 CIRCULAR 0.470 0.000 0 0 1
P867 CIRCULAR 0.500 0.000 0 0 1
P868 CIRCULAR 0.300 0.000 0 0 1
P869 CIRCULAR 0.800 0.000 0 0 1
P870 CIRCULAR 0.300 0.000 0 0 1
P871 CIRCULAR 0.297 0.000 0 0 1
P872 CIRCULAR 0.300 0.000 0 0 1
P873 CIRCULAR 0.400 0.000 0 0 1
P874 CIRCULAR 0.375 0.000 0 0 1
P875 CIRCULAR 0.600 0.000 0 0 1
P876 CIRCULAR 0.666 0.000 0 0 1
P877 CIRCULAR 0.400 0.000 0 0 1
P878 CIRCULAR 0.400 0.000 0 0 1
P879 CIRCULAR 0.500 0.000 0 0 1
P880 CIRCULAR 0.400 0.000 0 0 1
P881 CIRCULAR 0.297 0.000 0 0 1
P882 CIRCULAR 0.234 0.000 0 0 1
P883 CIRCULAR 0.470 0.000 0 0 1
P884 CIRCULAR 0.375 0.000 0 0 1
P885 CIRCULAR 0.296 0.000 0 0 1
P886 CIRCULAR 0.800 0.000 0 0 1
P887 CIRCULAR 0.500 0.000 0 0 1
P888 CIRCULAR 0.296 0.000 0 0 1
P889 CIRCULAR 0.700 0.000 0 0 1
P890 CIRCULAR 0.234 0.000 0 0 1
P891 CIRCULAR 0.400 0.000 0 0 1
P892 CIRCULAR 0.470 0.000 0 0 1
P893 CIRCULAR 0.296 0.000 0 0 1
P894 CIRCULAR 0.297 0.000 0 0 1
P895 CIRCULAR 0.400 0.000 0 0 1
P896 CIRCULAR 0.297 0.000 0 0 1
P897 CIRCULAR 0.500 0.000 0 0 1
P898 CIRCULAR 0.500 0.000 0 0 1
P899 CIRCULAR 0.400 0.000 0 0 1
P900 CIRCULAR 0.500 0.000 0 0 1
P901 CIRCULAR 0.500 0.000 0 0 1
P902 CIRCULAR 0.235 0.000 0 0 1
P903 CIRCULAR 0.297 0.000 0 0 1
P904 CIRCULAR 0.600 0.000 0 0 1
P905 CIRCULAR 0.296 0.000 0 0 1
P906 CIRCULAR 0.188 0.000 0 0 1
P907 CIRCULAR 0.296 0.000 0 0 1
P908 CIRCULAR 0.600 0.000 0 0 1
P909 CIRCULAR 0.296 0.000 0 0 1
P910 CIRCULAR 0.300 0.000 0 0 1
P911 CIRCULAR 0.500 0.000 0 0 1
P912 CIRCULAR 0.296 0.000 0 0 1
P913 CIRCULAR 0.470 0.000 0 0 1
P914 CIRCULAR 0.296 0.000 0 0 1
P915 RECT_CLOSED 0.220 0.220 0 0 1
P916 CIRCULAR 0.297 0.000 0 0 1
P917 CIRCULAR 0.235 0.000 0 0 1
P918 CIRCULAR 0.375 0.000 0 0 1
P919 CIRCULAR 0.400 0.000 0 0 1
P920 CIRCULAR 0.297 0.000 0 0 1
P921 CIRCULAR 0.700 0.000 0 0 1
P922 CIRCULAR 0.400 0.000 0 0 1
P923 CIRCULAR 0.295 0.000 0 0 1
P924 CIRCULAR 0.375 0.000 0 0 1
P925 CIRCULAR 0.300 0.000 0 0 1
P926 EGG 0.860 0.000 0 0 1
P927 CIRCULAR 0.188 0.000 0 0 1
P928 CIRCULAR 0.300 0.000 0 0 1
P929 CIRCULAR 0.500 0.000 0 0 1
P930 CIRCULAR 0.296 0.000 0 0 1
P931 CIRCULAR 0.400 0.000 0 0 1
P932 CIRCULAR 0.500 0.000 0 0 1
P933 RECT_CLOSED 1.700 0.960 0 0 1
P934 EGG 0.860 0.000 0 0 1
P935 CIRCULAR 0.300 0.000 0 0 1
P936 CIRCULAR 0.297 0.000 0 0 1
P937 RECT_CLOSED 0.220 0.220 0 0 1
P938 CIRCULAR 0.600 0.000 0 0 1
P939 CIRCULAR 0.480 0.000 0 0 1
P940 CIRCULAR 0.296 0.000 0 0 1
P941 EGG 0.860 0.000 0 0 1
P942 CIRCULAR 0.296 0.000 0 0 1
P943 EGG 0.860 0.000 0 0 1
P944 CIRCULAR 0.700 0.000 0 0 1
P945 CIRCULAR 0.188 0.000 0 0 1
P946 EGG 0.860 0.000 0 0 1
P947 CIRCULAR 0.375 0.000 0 0 1
P948 CIRCULAR 0.300 0.000 0 0 1
P949 CIRCULAR 0.400 0.000 0 0 1
P950 CIRCULAR 0.500 0.000 0 0 1
P951 CIRCULAR 0.400 0.000 0 0 1
P952 CIRCULAR 0.296 0.000 0 0 1
P953 CIRCULAR 0.500 0.000 0 0 1
P954 CIRCULAR 0.376 0.000 0 0 1
P955 CIRCULAR 0.300 0.000 0 0 1
P956 CIRCULAR 0.500 0.000 0 0 1
P957 CIRCULAR 0.375 0.000 0 0 1
P958 CIRCULAR 0.500 0.000 0 0 1
P959 CIRCULAR 0.295 0.000 0 0 1
P960 CIRCULAR 0.150 0.000 0 0 1
P961 CIRCULAR 0.480 0.000 0 0 1
P962 CIRCULAR 0.500 0.000 0 0 1
P963 CIRCULAR 0.297 0.000 0 0 1
P964 CIRCULAR 0.376 0.000 0 0 1
P965 CIRCULAR 0.500 0.000 0 0 1
P966 CIRCULAR 0.400 0.000 0 0 1
P967 CIRCULAR 0.297 0.000 0 0 1
P968 CIRCULAR 0.300 0.000 0 0 1
P969 CIRCULAR 0.600 0.000 0 0 1
P970 CIRCULAR 0.296 0.000 0 0 1
P971 CIRCULAR 0.188 0.000 0 0 1
P972 CIRCULAR 0.600 0.000 0 0 1
P973 CIRCULAR 0.375 0.000 0 0 1
P974 CIRCULAR 0.500 0.000 0 0 1
P975 CIRCULAR 0.296 0.000 0 0 1
P976 CIRCULAR 0.188 0.000 0 0 1
P977 CIRCULAR 0.150 0.000 0 0 1
P978 CIRCULAR 0.400 0.000 0 0 1
P979 CIRCULAR 0.296 0.000 0 0 1
P980 CIRCULAR 0.400 0.000 0 0 1
P981 CIRCULAR 0.375 0.000 0 0 1
P982 CIRCULAR 0.235 0.000 0 0 1
P983 CIRCULAR 0.296 0.000 0 0 1
P984 CIRCULAR 0.500 0.000 0 0 1
P985 CIRCULAR 0.188 0.000 0 0 1
P986 CIRCULAR 0.300 0.000 0 0 1
P987 CIRCULAR 0.500 0.000 0 0 1
P988 CIRCULAR 0.250 0.000 0 0 1
P989 CIRCULAR 0.296 0.000 0 0 1
P990 CIRCULAR 0.600 0.000 0 0 1
P991 CIRCULAR 0.296 0.000 0 0 1
P992 CIRCULAR 0.296 0.000 0 0 1
P993 CIRCULAR 0.500 0.000 0 0 1
P994 CIRCULAR 0.296 0.000 0 0 1
P995 CIRCULAR 0.376 0.000 0 0 1
P996 CIRCULAR 0.296 0.000 0 0 1
P997 CIRCULAR 0.375 0.000 0 0 1
P998 CIRCULAR 0.400 0.000 0 0 1
P999 CIRCULAR 0.380 0.000 0 0 1
P1000 CIRCULAR 0.400 0.000 0 0 1
P1001 CIRCULAR 0.380 0.000 0 0 1
P1002 CIRCULAR 0.600 0.000 0 0 1
P1003 CIRCULAR 0.376 0.000 0 0 1
P1004 CIRCULAR 0.500 0.000 0 0 1
P1005 EGG 0.710 0.000 0 0 1
P1006 CIRCULAR 0.296 0.000 0 0 1
P1007 CIRCULAR 0.500 0.000 0 0 1
P1008 CIRCULAR 0.400 0.000 0 0 1
P1009 CIRCULAR 0.400 0.000 0 0 1
P1010 CIRCULAR 0.466 0.000 0 0 1
P1011 CIRCULAR 0.297 0.000 0 0 1
P1012 CIRCULAR 0.300 0.000 0 0 1
P1013 CIRCULAR 0.235 0.000 0 0 1
P1014 CIRCULAR 0.296 0.000 0 0 1
P1015 CIRCULAR 0.235 0.000 0 0 1
P1016 CIRCULAR 0.188 0.000 0 0 1
P1017 CIRCULAR 0.400 0.000 0 0 1
P1018 CIRCULAR 0.375 0.000 0 0 1
P1019 CIRCULAR 0.300 0.000 0 0 1
P1020 CIRCULAR 0.300 0.000 0 0 1
P1021 CIRCULAR 0.376 0.000 0 0 1
P1022 CIRCULAR 0.296 0.000 0 0 1
P1023 CIRCULAR 0.400 0.000 0 0 1
P1024 CIRCULAR 0.400 0.000 0 0 1
P1025 CIRCULAR 0.234 0.000 0 0 1
P1026 CIRCULAR 0.600 0.000 0 0 1
P1027 CIRCULAR 0.296 0.000 0 0 1
P1028 CIRCULAR 0.500 0.000 0 0 1
P1029 CIRCULAR 0.400 0.000 0 0 1
P1030 CIRCULAR 0.600 0.000 0 0 1
P1031 CIRCULAR 0.296 0.000 0 0 1
P1032 CIRCULAR 0.297 0.000 0 0 1
P1033 CIRCULAR 0.188 0.000 0 0 1
P1034 CIRCULAR 0.375 0.000 0 0 1
P1035 CIRCULAR 0.480 0.000 0 0 1
P1036 CIRCULAR 0.375 0.000 0 0 1
P1037 CIRCULAR 0.400 0.000 0 0 1
P1038 CIRCULAR 0.375 0.000 0 0 1
P1039 CIRCULAR 0.600 0.000 0 0 1
P1040 CIRCULAR 0.297 0.000 0 0 1
P1041 CIRCULAR 0.188 0.000 0 0 1
P1042 CIRCULAR 0.376 0.000 0 0 1
P1043 CIRCULAR 0.297 0.000 0 0 1
P1044 CIRCULAR 0.375 0.000 0 0 1
P1045 CIRCULAR 0.296 0.000 0 0 1
P1046 CIRCULAR 0.300 0.000 0 0 1
P1047 CIRCULAR 0.297 0.000 0 0 1
P1048 RECT_CLOSED 0.860 0.600 0 0 1
P1049 CIRCULAR 0.376 0.000 0 0 1
P1050 CIRCULAR 0.296 0.000 0 0 1
P1051 CIRCULAR 0.400 0.000 0 0 1
P1052 CIRCULAR 0.296 0.000 0 0 1
P1053 CIRCULAR 0.296 0.000 0 0 1
P1054 CIRCULAR 0.188 0.000 0 0 1
P1055 CIRCULAR 0.235 0.000 0 0 1
P1056 CIRCULAR 0.626 0.000 0 0 1
P1057 CIRCULAR 0.500 0.000 0 0 1
P1058 CIRCULAR 0.400 0.000 0 0 1
P1059 CIRCULAR 0.297 0.000 0 0 1
P1060 CIRCULAR 0.500 0.000 0 0 1
P1061 CIRCULAR 0.600 0.000 0 0 1
P1062 CIRCULAR 0.400 0.000 0 0 1
P1063 CIRCULAR 0.500 0.000 0 0 1
P1064 CIRCULAR 0.300 0.000 0 0 1
P1065 CIRCULAR 0.296 0.000 0 0 1
P1066 CIRCULAR 0.500 0.000 0 0 1
P1067 CIRCULAR 0.800 0.000 0 0 1
P1068 CIRCULAR 0.400 0.000 0 0 1
P1069 CIRCULAR 0.400 0.000 0 0 1
P1070 CIRCULAR 0.297 0.000 0 0 1
P1071 CIRCULAR 0.800 0.000 0 0 1
P1072 CIRCULAR 0.470 0.000 0 0 1
P1073 CIRCULAR 0.300 0.000 0 0 1
P1074 CIRCULAR 0.400 0.000 0 0 1
P1075 CIRCULAR 0.297 0.000 0 0 1
P1076 CIRCULAR 0.235 0.000 0 0 1
P1077 CIRCULAR 0.500 0.000 0 0 1
P1078 CIRCULAR 1.000 0.000 0 0 1
P1079 CIRCULAR 0.188 0.000 0 0 1
P1080 CIRCULAR 0.296 0.000 0 0 1
P1081 CIRCULAR 0.296 0.000 0 0 1
P1082 CIRCULAR 0.375 0.000 0 0 1
P1083 CIRCULAR 0.400 0.000 0 0 1
P1084 EGG 0.710 0.000 0 0 1
P1085 CIRCULAR 0.375 0.000 0 0 1
P1086 CIRCULAR 0.297 0.000 0 0 1
P1087 CIRCULAR 0.375 0.000 0 0 1
P1088 CIRCULAR 0.297 0.000 0 0 1
P1089 CIRCULAR 0.297 0.000 0 0 1
P1090 CIRCULAR 0.400 0.000 0 0 1
P1091 CIRCULAR 0.400 0.000 0 0 1
P1092 CIRCULAR 0.296 0.000 0 0 1
P1093 CIRCULAR 0.375 0.000 0 0 1
P1094 CIRCULAR 0.500 0.000 0 0 1
P1095 CIRCULAR 0.626 0.000 0 0 1
P1096 CIRCULAR 0.296 0.000 0 0 1
P1097 CIRCULAR 0.400 0.000 0 0 1
P1098 CIRCULAR 0.500 0.000 0 0 1
P1099 CIRCULAR 0.500 0.000 0 0 1
P1100 CIRCULAR 0.376 0.000 0 0 1
P1101 CIRCULAR 0.375 0.000 0 0 1
P1102 CIRCULAR 0.296 0.000 0 0 1
P1103 CIRCULAR 0.466 0.000 0 0 1
P1104 CIRCULAR 0.480 0.000 0 0 1
P1105 CIRCULAR 0.500 0.000 0 0 1
P1106 CIRCULAR 0.300 0.000 0 0 1
P1107 CIRCULAR 0.296 0.000 0 0 1
P1108 CIRCULAR 0.400 0.000 0 0 1
P1109 CIRCULAR 0.600 0.000 0 0 1
P1110 CIRCULAR 0.500 0.000 0 0 1
P1111 CIRCULAR 0.500 0.000 0 0 1
P1112 CIRCULAR 0.250 0.000 0 0 1
P1113 CIRCULAR 0.188 0.000 0 0 1
P1114 CIRCULAR 0.296 0.000 0 0 1
P1115 EGG 0.860 0.000 0 0 1
P1116 EGG 0.700 0.000 0 0 1
P1117 CIRCULAR 0.297 0.000 0 0 1
P1118 CIRCULAR 0.400 0.000 0 0 1
P1119 CIRCULAR 0.400 0.000 0 0 1
P1120 CIRCULAR 0.400 0.000 0 0 1
P1121 CIRCULAR 0.600 0.000 0 0 1
P1122 CIRCULAR 0.300 0.000 0 0 1
P1123 CIRCULAR 0.300 0.000 0 0 1
P1124 CIRCULAR 0.296 0.000 0 0 1
P1125 CIRCULAR 0.500 0.000 0 0 1
P1126 CIRCULAR 0.300 0.000 0 0 1
P1127 CIRCULAR 0.300 0.000 0 0 1
P1128 CIRCULAR 0.500 0.000 0 0 1
P1129 CIRCULAR 0.470 0.000 0 0 1
P1130 CIRCULAR 0.296 0.000 0 0 1
P1131 CIRCULAR 0.250 0.000 0 0 1
P1132 CIRCULAR 0.400 0.000 0 0 1
P1133 CIRCULAR 0.297 0.000 0 0 1
P1134 CIRCULAR 0.400 0.000 0 0 1
P1135 RECT_CLOSED 0.450 0.350 0 0 1
P1136 CIRCULAR 0.400 0.000 0 0 1
P1137 CIRCULAR 0.250 0.000 0 0 1
P1138 CIRCULAR 0.296 0.000 0 0 1
P1139 CIRCULAR 1.000 0.000 0 0 1
P1140 CIRCULAR 0.593 0.000 0 0 1
P1141 CIRCULAR 0.600 0.000 0 0 1
P1142 CIRCULAR 0.400 0.000 0 0 1
P1143 CIRCULAR 0.400 0.000 0 0 1
P1144 CIRCULAR 0.600 0.000 0 0 1
P1145 CIRCULAR 0.300 0.000 0 0 1
P1146 EGG 0.860 0.000 0 0 1
P1147 CIRCULAR 0.300 0.000 0 0 1
P1148 CIRCULAR 0.400 0.000 0 0 1
P1149 CIRCULAR 0.400 0.000 0 0 1
P1150 CIRCULAR 0.600 0.000 0 0 1
P1151 CIRCULAR 0.700 0.000 0 0 1
P1152 RECT_CLOSED 0.220 0.220 0 0 1
P1153 CIRCULAR 0.188 0.000 0 0 1
P1154 CIRCULAR 0.500 0.000 0 0 1
P1155 CIRCULAR 0.297 0.000 0 0 1
P1156 CIRCULAR 0.235 0.000 0 0 1
P1157 CIRCULAR 0.300 0.000 0 0 1
P1158 CIRCULAR 0.188 0.000 0 0 1
P1159 CIRCULAR 0.300 0.000 0 0 1
P1160 CIRCULAR 0.375 0.000 0 0 1
P1161 CIRCULAR 0.375 0.000 0 0 1
P1162 CIRCULAR 0.296 0.000 0 0 1
P1163 CIRCULAR 0.376 0.000 0 0 1
P1164 CIRCULAR 0.150 0.000 0 0 1
P1165 CIRCULAR 0.297 0.000 0 0 1
P1166 RECT_CLOSED 0.500 0.500 0 0 1
P1167 EGG 0.710 0.000 0 0 1
P1168 CIRCULAR 0.300 0.000 0 0 1
P1169 CIRCULAR 0.296 0.000 0 0 1
P1170 CIRCULAR 0.300 0.000 0 0 1
P1171 CIRCULAR 0.500 0.000 0 0 1
P1172 CIRCULAR 0.296 0.000 0 0 1
P1173 CIRCULAR 0.300 0.000 0 0 1
P1174 CIRCULAR 0.300 0.000 0 0 1
P1175 CIRCULAR 0.762 0.000 0 0 1
P1176 CIRCULAR 0.300 0.000 0 0 1
P1177 CIRCULAR 0.375 0.000 0 0 1
P1178 CIRCULAR 0.400 0.000 0 0 1
P1179 CIRCULAR 0.400 0.000 0 0 1
P1180 CIRCULAR 0.600 0.000 0 0 1
P1181 CIRCULAR 0.296 0.000 0 0 1
P1182 CIRCULAR 0.500 0.000 0 0 1
P1183 CIRCULAR 0.400 0.000 0 0 1
P1184 CIRCULAR 0.296 0.000 0 0 1
P1185 CIRCULAR 0.500 0.000 0 0 1
P1186 CIRCULAR 0.800 0.000 0 0 1
P1187 CIRCULAR 0.500 0.000 0 0 1
P1188 CIRCULAR 0.800 0.000 0 0 1
P1189 CIRCULAR 0.188 0.000 0 0 1
P1190 CIRCULAR 0.375 0.000 0 0 1
P1191 CIRCULAR 0.375 0.000 0 0 1
P1192 CIRCULAR 0.296 0.000 0 0 1
P1193 CIRCULAR 0.296 0.000 0 0 1
P1194 CIRCULAR 0.375 0.000 0 0 1
P1195 CIRCULAR 0.150 0.000 0 0 1
P1196 CIRCULAR 0.296 0.000 0 0 1
P1197 CIRCULAR 0.296 0.000 0 0 1
P1198 CIRCULAR 0.470 0.000 0 0 1
P1199 CIRCULAR 0.400 0.000 0 0 1
P1200 CIRCULAR 0.400 0.000 0 0 1
P1201 CIRCULAR 0.300 0.000 0 0 1
P1202 CIRCULAR 0.297 0.000 0 0 1
P1203 CIRCULAR 0.297 0.000 0 0 1
P1204 CIRCULAR 0.500 0.000 0 0 1
P1205 CIRCULAR 0.235 0.000 0 0 1
P1206 CIRCULAR 0.296 0.000 0 0 1
P1207 CIRCULAR 0.500 0.000 0 0 1
P1208 CIRCULAR 0.800 0.000 0 0 1
P1209 CIRCULAR 0.500 0.000 0 0 1
P1210 CIRCULAR 0.400 0.000 0 0 1
P1211 CIRCULAR 0.500 0.000 0 0 1
P1212 CIRCULAR 0.375 0.000 0 0 1
P1213 CIRCULAR 0.762 0.000 0 0 1
P1214 CIRCULAR 0.600 0.000 0 0 1
P1215 CIRCULAR 0.296 0.000 0 0 1
P1216 CIRCULAR 0.250 0.000 0 0 1
P1217 CIRCULAR 0.400 0.000 0 0 1
P1218 CIRCULAR 0.300 0.000 0 0 1
P1219 CIRCULAR 0.400 0.000 0 0 1
P1220 CIRCULAR 0.117 0.000 0 0 1
P1221 CIRCULAR 0.400 0.000 0 0 1
P1222 CIRCULAR 0.300 0.000 0 0 1
P1223 RECT_CLOSED 0.220 0.220 0 0 1
P1224 CIRCULAR 0.500 0.000 0 0 1
P1225 CIRCULAR 0.375 0.000 0 0 1
P1226 CIRCULAR 0.296 0.000 0 0 1
P1227 CIRCULAR 0.235 0.000 0 0 1
P1228 CIRCULAR 0.297 0.000 0 0 1
P1229 CIRCULAR 0.400 0.000 0 0 1
P1230 CIRCULAR 0.234 0.000 0 0 1
P1231 CIRCULAR 0.188 0.000 0 0 1
P1232 CIRCULAR 0.297 0.000 0 0 1
P1233 CIRCULAR 0.300 0.000 0 0 1
P1234 CIRCULAR 0.480 0.000 0 0 1
P1235 CIRCULAR 0.250 0.000 0 0 1
P1236 CIRCULAR 0.188 0.000 0 0 1
P1237 CIRCULAR 0.500 0.000 0 0 1
P1238 CIRCULAR 0.300 0.000 0 0 1
P1239 CIRCULAR 0.400 0.000 0 0 1
P1240 CIRCULAR 0.234 0.000 0 0 1
P1241 CIRCULAR 0.235 0.000 0 0 1
P1242 CIRCULAR 0.188 0.000 0 0 1
P1243 CIRCULAR 0.297 0.000 0 0 1
P1244 CIRCULAR 0.600 0.000 0 0 1
P1245 CIRCULAR 0.296 0.000 0 0 1
P1246 CIRCULAR 0.500 0.000 0 0 1
P1247 CIRCULAR 0.234 0.000 0 0 1
P1248 CIRCULAR 0.385 0.000 0 0 1
P1249 CIRCULAR 0.296 0.000 0 0 1
P1250 CIRCULAR 0.296 0.000 0 0 1
P1251 CIRCULAR 0.235 0.000 0 0 1
P1252 CIRCULAR 0.400 0.000 0 0 1
P1253 CIRCULAR 0.400 0.000 0 0 1
P1254 CIRCULAR 0.297 0.000 0 0 1
P1255 CIRCULAR 0.150 0.000 0 0 1
P1256 CIRCULAR 0.400 0.000 0 0 1
P1257 CIRCULAR 0.500 0.000 0 0 1
P1258 CIRCULAR 1.000 0.000 0 0 1
P1259 CIRCULAR 0.296 0.000 0 0 1
P1260 CIRCULAR 0.297 0.000 0 0 1
P1261 CIRCULAR 0.296 0.000 0 0 1
P1262 RECT_CLOSED 0.660 0.600 0 0 1
P1263 CIRCULAR 0.600 0.000 0 0 1
P1264 CIRCULAR 0.300 0.000 0 0 1
P1265 CIRCULAR 0.296 0.000 0 0 1
P1266 CIRCULAR 0.470 0.000 0 0 1
P1267 CIRCULAR 0.400 0.000 0 0 1
P1268 CIRCULAR 0.200 0.000 0 0 1
P1269 CIRCULAR 0.470 0.000 0 0 1
P1270 CIRCULAR 0.297 0.000 0 0 1
P1271 CIRCULAR 0.500 0.000 0 0 1
P1272 CIRCULAR 0.296 0.000 0 0 1
P1273 CIRCULAR 0.500 0.000 0 0 1
P1274 CIRCULAR 0.296 0.000 0 0 1
P1275 CIRCULAR 0.297 0.000 0 0 1
P1276 CIRCULAR 0.400 0.000 0 0 1
P1277 CIRCULAR 0.470 0.000 0 0 1
P1278 CIRCULAR 0.400 0.000 0 0 1
P1279 CIRCULAR 0.500 0.000 0 0 1
P1280 CIRCULAR 0.400 0.000 0 0 1
P1281 RECT_CLOSED 0.450 0.350 0 0 1
P1282 CIRCULAR 0.234 0.000 0 0 1
P1283 CIRCULAR 0.376 0.000 0 0 1
P1284 CIRCULAR 0.500 0.000 0 0 1
P1285 CIRCULAR 0.296 0.000 0 0 1
P1286 CIRCULAR 0.297 0.000 0 0 1
P1287 CIRCULAR 1.146 0.000 0 0 1
P1288 CIRCULAR 0.400 0.000 0 0 1
P1289 CIRCULAR 0.296 0.000 0 0 1
P1290 CIRCULAR 0.297 0.000 0 0 1
P1291 CIRCULAR 0.297 0.000 0 0 1
P1292 CIRCULAR 0.400 0.000 0 0 1
P1293 CIRCULAR 1.000 0.000 0 0 1
P1294 RECT_CLOSED 0.220 0.220 0 0 1
P1295 CIRCULAR 0.297 0.000 0 0 1
P1296 CIRCULAR 0.297 0.000 0 0 1
P1297 CIRCULAR 0.188 0.000 0 0 1
P1298 CIRCULAR 0.296 0.000 0 0 1
P1299 CIRCULAR 0.500 0.000 0 0 1
P1300 CIRCULAR 0.200 0.000 0 0 1
P1301 CIRCULAR 0.500 0.000 0 0 1
P1302 CIRCULAR 0.300 0.000 0 0 1
P1303 CIRCULAR 0.300 0.000 0 0 1
P1304 CIRCULAR 0.300 0.000 0 0 1
P1305 CIRCULAR 0.296 0.000 0 0 1
P1306 CIRCULAR 0.297 0.000 0 0 1
P1307 CIRCULAR 0.400 0.000 0 0 1
P1308 CIRCULAR 0.297 0.000 0 0 1
P1309 CIRCULAR 0.300 0.000 0 0 1
P1310 CIRCULAR 0.297 0.000 0 0 1
P1311 CIRCULAR 0.500 0.000 0 0 1
P1312 CIRCULAR 0.466 0.000 0 0 1
P1313 RECT_CLOSED 0.900 0.500 0 0 1
P1314 CIRCULAR 0.500 0.000 0 0 1
P1315 CIRCULAR 0.300 0.000 0 0 1
P1316 CIRCULAR 0.593 0.000 0 0 1
P1317 CIRCULAR 0.375 0.000 0 0 1
P1318 CIRCULAR 0.500 0.000 0 0 1
P1319 CIRCULAR 0.296 0.000 0 0 1
P1320 CIRCULAR 0.297 0.000 0 0 1
P1321 CIRCULAR 0.500 0.000 0 0 1
P1322 CIRCULAR 0.500 0.000 0 0 1
P1323 CIRCULAR 0.279 0.000 0 0 1
P1324 CIRCULAR 0.500 0.000 0 0 1
P1325 CIRCULAR 0.500 0.000 0 0 1
P1326 CIRCULAR 0.296 0.000 0 0 1
P1327 CIRCULAR 0.593 0.000 0 0 1
P1328 CIRCULAR 1.000 0.000 0 0 1
P1329 CIRCULAR 0.300 0.000 0 0 1
P1330 CIRCULAR 0.500 0.000 0 0 1
P1331 CIRCULAR 0.500 0.000 0 0 1
P1332 CIRCULAR 0.400 0.000 0 0 1
P1333 CIRCULAR 0.296 0.000 0 0 1
P1334 CIRCULAR 0.500 0.000 0 0 1
P1335 CIRCULAR 0.500 0.000 0 0 1
P1336 CIRCULAR 0.375 0.000 0 0 1
P1337 CIRCULAR 0.600 0.000 0 0 1
P1338 CIRCULAR 0.235 0.000 0 0 1
P1339 CIRCULAR 0.500 0.000 0 0 1
P1340 CIRCULAR 0.296 0.000 0 0 1
P1341 CIRCULAR 0.297 0.000 0 0 1
P1342 CIRCULAR 0.400 0.000 0 0 1
P1343 CIRCULAR 0.200 0.000 0 0 1
P1344 CIRCULAR 0.500 0.000 0 0 1
P1345 CIRCULAR 0.376 0.000 0 0 1
P1346 CIRCULAR 0.375 0.000 0 0 1
P1347 CIRCULAR 0.400 0.000 0 0 1
P1348 EGG 0.596 0.000 0 0 1
P1349 CIRCULAR 0.235 0.000 0 0 1
P1350 CIRCULAR 0.297 0.000 0 0 1
P1351 CIRCULAR 0.400 0.000 0 0 1
P1352 CIRCULAR 0.296 0.000 0 0 1
P1353 CIRCULAR 0.235 0.000 0 0 1
P1354 CIRCULAR 0.480 0.000 0 0 1
P1355 CIRCULAR 0.500 0.000 0 0 1
P1356 CIRCULAR 0.500 0.000 0 0 1
P1357 CIRCULAR 0.235 0.000 0 0 1
P1358 CIRCULAR 0.296 0.000 0 0 1
P1359 CIRCULAR 0.470 0.000 0 0 1
P1360 CIRCULAR 0.235 0.000 0 0 1
P1361 CIRCULAR 0.296 0.000 0 0 1
P1362 CIRCULAR 0.466 0.000 0 0 1
P1363 CIRCULAR 0.500 0.000 0 0 1
P1364 CIRCULAR 0.296 0.000 0 0 1
P1365 CIRCULAR 0.400 0.000 0 0 1
P1366 CIRCULAR 0.150 0.000 0 0 1
P1367 CIRCULAR 0.297 0.000 0 0 1
P1368 CIRCULAR 0.600 0.000 0 0 1
P1369 CIRCULAR 0.300 0.000 0 0 1
P1370 CIRCULAR 0.188 0.000 0 0 1
P1371 CIRCULAR 0.500 0.000 0 0 1
P1372 CIRCULAR 0.297 0.000 0 0 1
P1373 CIRCULAR 0.400 0.000 0 0 1
P1374 CIRCULAR 0.400 0.000 0 0 1
P1375 CIRCULAR 0.400 0.000 0 0 1
P1376 CIRCULAR 0.500 0.000 0 0 1
P1377 CIRCULAR 0.297 0.000 0 0 1
P1378 CIRCULAR 0.500 0.000 0 0 1
P1379 CIRCULAR 0.200 0.000 0 0 1
P1380 CIRCULAR 0.297 0.000 0 0 1
P1381 CIRCULAR 0.297 0.000 0 0 1
P1382 CIRCULAR 0.500 0.000 0 0 1
P1383 CIRCULAR 0.235 0.000 0 0 1
P1384 CIRCULAR 0.500 0.000 0 0 1
P1385 CIRCULAR 0.400 0.000 0 0 1
P1386 CIRCULAR 0.297 0.000 0 0 1
P1387 CIRCULAR 0.600 0.000 0 0 1
P1388 CIRCULAR 0.700 0.000 0 0 1
P1389 EGG 0.860 0.000 0 0 1
P1390 CIRCULAR 0.400 0.000 0 0 1
P1391 CIRCULAR 0.296 0.000 0 0 1
P1392 CIRCULAR 0.500 0.000 0 0 1
P1393 CIRCULAR 0.296 0.000 0 0 1
P1394 CIRCULAR 0.234 0.000 0 0 1
P1395 CIRCULAR 0.296 0.000 0 0 1
P1396 CIRCULAR 0.296 0.000 0 0 1
P1397 CIRCULAR 0.150 0.000 0 0 1
P1398 CIRCULAR 0.188 0.000 0 0 1
P1399 CIRCULAR 0.400 0.000 0 0 1
P1400 CIRCULAR 0.296 0.000 0 0 1
P1401 CIRCULAR 0.500 0.000 0 0 1
P1402 CIRCULAR 0.235 0.000 0 0 1
P1403 CIRCULAR 0.500 0.000 0 0 1
P1404 CIRCULAR 0.400 0.000 0 0 1
P1405 CIRCULAR 0.296 0.000 0 0 1
P1406 CIRCULAR 0.150 0.000 0 0 1
P1407 CIRCULAR 0.500 0.000 0 0 1
P1408 CIRCULAR 0.500 0.000 0 0 1
P1409 CIRCULAR 0.500 0.000 0 0 1
P1410 EGG 0.860 0.000 0 0 1
P1411 CIRCULAR 0.470 0.000 0 0 1
P1412 CIRCULAR 0.230 0.000 0 0 1
P1413 CIRCULAR 0.297 0.000 0 0 1
P1414 CIRCULAR 0.600 0.000 0 0 1
P1415 CIRCULAR 0.296 0.000 0 0 1
P1416 CIRCULAR 0.297 0.000 0 0 1
P1417 CIRCULAR 0.297 0.000 0 0 1
P1418 EGG 0.860 0.000 0 0 1
P1419 CIRCULAR 0.297 0.000 0 0 1
P1420 CIRCULAR 0.188 0.000 0 0 1
P1421 CIRCULAR 0.375 0.000 0 0 1
P1422 CIRCULAR 0.400 0.000 0 0 1
P1423 RECT_CLOSED 0.220 0.220 0 0 1
P1424 CIRCULAR 0.375 0.000 0 0 1
P1425 CIRCULAR 0.297 0.000 0 0 1
P1426 CIRCULAR 0.250 0.000 0 0 1
P1427 CIRCULAR 0.600 0.000 0 0 1
P1428 CIRCULAR 0.400 0.000 0 0 1
P1429 CIRCULAR 0.296 0.000 0 0 1
P1430 CIRCULAR 0.400 0.000 0 0 1
P1431 CIRCULAR 0.375 0.000 0 0 1
P1432 CIRCULAR 0.297 0.000 0 0 1
P1433 CIRCULAR 0.500 0.000 0 0 1
P1434 CIRCULAR 0.500 0.000 0 0 1
P1435 CIRCULAR 0.296 0.000 0 0 1
P1436 CIRCULAR 0.296 0.000 0 0 1
P1437 CIRCULAR 0.296 0.000 0 0 1
P1438 CIRCULAR 0.600 0.000 0 0 1
P1439 CIRCULAR 0.297 0.000 0 0 1
P1440 CIRCULAR 0.235 0.000 0 0 1
P1441 CIRCULAR 0.296 0.000 0 0 1
P1442 CIRCULAR 0.400 0.000 0 0 1
P1443 CIRCULAR 0.235 0.000 0 0 1
P1444 CIRCULAR 0.296 0.000 0 0 1
P1445 CIRCULAR 0.296 0.000 0 0 1
P1446 CIRCULAR 0.296 0.000 0 0 1
P1447 CIRCULAR 0.400 0.000 0 0 1
P1448 CIRCULAR 0.500 0.000 0 0 1
P1449 CIRCULAR 0.235 0.000 0 0 1
P1450 CIRCULAR 0.400 0.000 0 0 1
P1451 CIRCULAR 0.300 0.000 0 0 1
P1452 CIRCULAR 0.400 0.000 0 0 1
P1453 CIRCULAR 0.600 0.000 0 0 1
P1454 CIRCULAR 0.600 0.000 0 0 1
P1455 CIRCULAR 0.300 0.000 0 0 1
P1456 CIRCULAR 0.296 0.000 0 0 1
P1457 CIRCULAR 0.400 0.000 0 0 1
P1458 CIRCULAR 0.296 0.000 0 0 1
P1459 CIRCULAR 0.300 0.000 0 0 1
P1460 CIRCULAR 0.600 0.000 0 0 1
P1461 CIRCULAR 0.300 0.000 0 0 1
P1462 CIRCULAR 0.375 0.000 0 0 1
P1463 CIRCULAR 0.400 0.000 0 0 1
P1464 CIRCULAR 0.400 0.000 0 0 1
P1465 CIRCULAR 0.297 0.000 0 0 1
P1466 CIRCULAR 0.188 0.000 0 0 1
P1467 CIRCULAR 0.297 0.000 0 0 1
P1468 CIRCULAR 0.500 0.000 0 0 1
P1469 CIRCULAR 0.188 0.000 0 0 1
P1470 CIRCULAR 1.000 0.000 0 0 1
P1471 CIRCULAR 0.296 0.000 0 0 1
P1472 CIRCULAR 0.297 0.000 0 0 1
P1473 CIRCULAR 0.296 0.000 0 0 1
P1474 CIRCULAR 0.300 0.000 0 0 1
P1475 CIRCULAR 0.500 0.000 0 0 1
P1476 CIRCULAR 0.296 0.000 0 0 1
P1477 CIRCULAR 0.400 0.000 0 0 1
P1478 CIRCULAR 0.297 0.000 0 0 1
P1479 CIRCULAR 0.297 0.000 0 0 1
P1480 CIRCULAR 0.500 0.000 0 0 1
P1481 CIRCULAR 0.600 0.000 0 0 1
P1482 RECT_CLOSED 1.500 0.960 0 0 1
P1483 CIRCULAR 0.500 0.000 0 0 1
P1484 CIRCULAR 0.470 0.000 0 0 1
P1485 CIRCULAR 0.800 0.000 0 0 1
P1486 CIRCULAR 1.000 0.000 0 0 1
P1487 CIRCULAR 0.296 0.000 0 0 1
P1488 CIRCULAR 0.296 0.000 0 0 1
P1489 CIRCULAR 0.235 0.000 0 0 1
P1490 CIRCULAR 0.500 0.000 0 0 1
P1491 CIRCULAR 0.376 0.000 0 0 1
P1492 CIRCULAR 0.297 0.000 0 0 1
P1493 CIRCULAR 0.954 0.000 0 0 1
P1494 CIRCULAR 0.188 0.000 0 0 1
P1495 CIRCULAR 0.400 0.000 0 0 1
P1496 CIRCULAR 0.600 0.000 0 0 1
P1497 CIRCULAR 0.500 0.000 0 0 1
P1498 CIRCULAR 0.500 0.000 0 0 1
P1499 CIRCULAR 0.375 0.000 0 0 1
P1500 CIRCULAR 0.500 0.000 0 0 1
P1501 CIRCULAR 0.300 0.000 0 0 1
P1502 CIRCULAR 0.188 0.000 0 0 1
P1503 CIRCULAR 0.200 0.000 0 0 1
P1504 CIRCULAR 0.400 0.000 0 0 1
P1505 RECT_CLOSED 0.220 0.220 0 0 1
P1506 CIRCULAR 0.375 0.000 0 0 1
P1507 CIRCULAR 0.297 0.000 0 0 1
P1508 CIRCULAR 0.296 0.000 0 0 1
P1509 CIRCULAR 0.470 0.000 0 0 1
P1510 CIRCULAR 0.296 0.000 0 0 1
P1511 CIRCULAR 0.300 0.000 0 0 1
P1512 CIRCULAR 0.200 0.000 0 0 1
P1513 CIRCULAR 0.150 0.000 0 0 1
P1514 CIRCULAR 0.500 0.000 0 0 1
P1515 CIRCULAR 0.375 0.000 0 0 1
P1516 CIRCULAR 0.297 0.000 0 0 1
P1517 CIRCULAR 0.296 0.000 0 0 1
P1518 CIRCULAR 0.500 0.000 0 0 1
P1519 CIRCULAR 0.296 0.000 0 0 1
P1520 CIRCULAR 0.297 0.000 0 0 1
P1521 CIRCULAR 0.375 0.000 0 0 1
P1522 CIRCULAR 0.296 0.000 0 0 1
P1523 CIRCULAR 0.235 0.000 0 0 1
P1524 CIRCULAR 0.300 0.000 0 0 1
P1525 CIRCULAR 0.400 0.000 0 0 1
P1526 CIRCULAR 0.188 0.000 0 0 1
P1527 CIRCULAR 0.500 0.000 0 0 1
P1528 CIRCULAR 0.296 0.000 0 0 1
P1529 CIRCULAR 0.700 0.000 0 0 1
P1530 CIRCULAR 0.297 0.000 0 0 1
P1531 CIRCULAR 0.300 0.000 0 0 1
P1532 CIRCULAR 0.297 0.000 0 0 1
P1533 CIRCULAR 0.376 0.000 0 0 1
P1534 CIRCULAR 0.500 0.000 0 0 1
P1535 CIRCULAR 0.297 0.000 0 0 1
P1536 CIRCULAR 0.188 0.000 0 0 1
P1537 CIRCULAR 0.593 0.000 0 0 1
P1538 CIRCULAR 0.150 0.000 0 0 1
P1539 CIRCULAR 0.700 0.000 0 0 1
P1540 CIRCULAR 0.296 0.000 0 0 1
P1541 CIRCULAR 0.600 0.000 0 0 1
P1542 CIRCULAR 0.296 0.000 0 0 1
P1543 CIRCULAR 0.296 0.000 0 0 1
P1544 CIRCULAR 0.188 0.000 0 0 1
P1545 CIRCULAR 0.500 0.000 0 0 1
P1546 CIRCULAR 0.296 0.000 0 0 1
P1547 CIRCULAR 0.297 0.000 0 0 1
P1548 CIRCULAR 0.296 0.000 0 0 1
P1549 CIRCULAR 0.234 0.000 0 0 1
P1550 CIRCULAR 0.296 0.000 0 0 1
P1551 CIRCULAR 0.188 0.000 0 0 1
P1552 CIRCULAR 0.234 0.000 0 0 1
P1553 CIRCULAR 0.188 0.000 0 0 1
P1554 CIRCULAR 0.600 0.000 0 0 1
P1555 CIRCULAR 0.500 0.000 0 0 1
P1556 CIRCULAR 0.296 0.000 0 0 1
P1557 CIRCULAR 0.380 0.000 0 0 1
P1558 RECT_CLOSED 0.220 0.220 0 0 1
P1559 CIRCULAR 0.376 0.000 0 0 1
P1560 CIRCULAR 0.188 0.000 0 0 1
P1561 CIRCULAR 0.600 0.000 0 0 1
P1562 CIRCULAR 0.480 0.000 0 0 1
P1563 CIRCULAR 0.300 0.000 0 0 1
P1564 CIRCULAR 0.296 0.000 0 0 1
P1565 CIRCULAR 0.376 0.000 0 0 1
P1566 CIRCULAR 0.300 0.000 0 0 1
P1567 CIRCULAR 0.297 0.000 0 0 1
P1568 CIRCULAR 0.500 0.000 0 0 1
P1569 CIRCULAR 0.500 0.000 0 0 1
P1570 CIRCULAR 0.297 0.000 0 0 1
P1571 CIRCULAR 0.500 0.000 0 0 1
P1572 CIRCULAR 0.297 0.000 0 0 1
P1573 CIRCULAR 0.300 0.000 0 0 1
P1574 CIRCULAR 0.297 0.000 0 0 1
P1575 CIRCULAR 0.400 0.000 0 0 1
P1576 CIRCULAR 0.296 0.000 0 0 1
P1577 CIRCULAR 0.296 0.000 0 0 1
P1578 CIRCULAR 0.297 0.000 0 0 1
P1579 CIRCULAR 0.234 0.000 0 0 1
P1580 CIRCULAR 0.480 0.000 0 0 1
P1581 CIRCULAR 0.375 0.000 0 0 1
P1582 CIRCULAR 0.150 0.000 0 0 1
P1583 CIRCULAR 0.400 0.000 0 0 1
P1584 RECT_CLOSED 0.220 0.220 0 0 1
P1585 RECT_CLOSED 0.500 0.500 0 0 1
P1586 CIRCULAR 0.470 0.000 0 0 1
P1587 EGG 0.720 0.000 0 0 1
P1588 CIRCULAR 0.375 0.000 0 0 1
P1589 CIRCULAR 0.700 0.000 0 0 1
P1590 CIRCULAR 0.300 0.000 0 0 1
P1591 CIRCULAR 0.470 0.000 0 0 1
P1592 CIRCULAR 0.300 0.000 0 0 1
P1593 CIRCULAR 0.150 0.000 0 0 1
P1594 CIRCULAR 0.400 0.000 0 0 1
P1595 CIRCULAR 0.500 0.000 0 0 1
P1596 CIRCULAR 0.593 0.000 0 0 1
P1597 CIRCULAR 0.300 0.000 0 0 1
P1598 CIRCULAR 0.296 0.000 0 0 1
P1599 CIRCULAR 0.400 0.000 0 0 1
P1600 CIRCULAR 0.300 0.000 0 0 1
P1601 CIRCULAR 0.296 0.000 0 0 1
P1602 CIRCULAR 0.296 0.000 0 0 1
P1603 CIRCULAR 0.500 0.000 0 0 1
P1604 CIRCULAR 0.400 0.000 0 0 1
P1605 CIRCULAR 0.234 0.000 0 0 1
P1606 CIRCULAR 0.700 0.000 0 0 1
P1607 CIRCULAR 0.235 0.000 0 0 1
P1608 CIRCULAR 0.235 0.000 0 0 1
P1609 CIRCULAR 0.376 0.000 0 0 1
P1610 CIRCULAR 0.700 0.000 0 0 1
P1611 CIRCULAR 0.297 0.000 0 0 1
P1612 CIRCULAR 0.300 0.000 0 0 1
P1613 CIRCULAR 0.500 0.000 0 0 1
P1614 CIRCULAR 0.375 0.000 0 0 1
P1615 CIRCULAR 0.300 0.000 0 0 1
P1616 CIRCULAR 0.600 0.000 0 0 1
P1617 CIRCULAR 0.400 0.000 0 0 1
P1618 CIRCULAR 0.376 0.000 0 0 1
P1619 CIRCULAR 0.600 0.000 0 0 1
P1620 CIRCULAR 0.800 0.000 0 0 1
P1621 CIRCULAR 0.296 0.000 0 0 1
P1622 CIRCULAR 0.600 0.000 0 0 1
P1623 CIRCULAR 0.376 0.000 0 0 1
P1624 CIRCULAR 0.296 0.000 0 0 1
P1625 CIRCULAR 0.297 0.000 0 0 1
P1626 CIRCULAR 0.297 0.000 0 0 1
P1627 CIRCULAR 0.234 0.000 0 0 1
P1628 CIRCULAR 0.500 0.000 0 0 1
P1629 CIRCULAR 0.500 0.000 0 0 1
P1630 CIRCULAR 0.376 0.000 0 0 1
P1631 CIRCULAR 0.297 0.000 0 0 1
P1632 CIRCULAR 0.297 0.000 0 0 1
P1633 CIRCULAR 0.296 0.000 0 0 1
P1634 CIRCULAR 0.400 0.000 0 0 1
P1635 CIRCULAR 0.590 0.000 0 0 1
P1636 CIRCULAR 0.297 0.000 0 0 1
P1637 RECT_CLOSED 0.220 0.220 0 0 1
P1638 RECT_CLOSED 1.000 1.000 0 0 1
P1639 CIRCULAR 0.400 0.000 0 0 1
P1640 CIRCULAR 0.600 0.000 0 0 1
P1641 CIRCULAR 0.300 0.000 0 0 1
P1642 CIRCULAR 0.376 0.000 0 0 1
P1643 CIRCULAR 0.188 0.000 0 0 1
P1644 CIRCULAR 0.600 0.000 0 0 1
P1645 CIRCULAR 0.300 0.000 0 0 1
P1646 CIRCULAR 0.235 0.000 0 0 1
P1647 CIRCULAR 0.800 0.000 0 0 1
P1648 CIRCULAR 0.300 0.000 0 0 1
P1649 CIRCULAR 0.600 0.000 0 0 1
P1650 CIRCULAR 0.297 0.000 0 0 1
P1651 CIRCULAR 0.297 0.000 0 0 1
P1652 CIRCULAR 0.593 0.000 0 0 1
P1653 CIRCULAR 0.375 0.000 0 0 1
P1654 CIRCULAR 0.296 0.000 0 0 1
P1655 CIRCULAR 0.297 0.000 0 0 1
P1656 CIRCULAR 0.296 0.000 0 0 1
P1657 CIRCULAR 1.000 0.000 0 0 1
P1658 CIRCULAR 0.296 0.000 0 0 1
P1659 CIRCULAR 0.375 0.000 0 0 1
P1660 CIRCULAR 0.400 0.000 0 0 1
P1661 RECT_CLOSED 0.700 0.500 0 0 1
P1662 CIRCULAR 0.400 0.000 0 0 1
P1663 CIRCULAR 0.300 0.000 0 0 1
P1664 CIRCULAR 0.296 0.000 0 0 1
P1665 CIRCULAR 0.375 0.000 0 0 1
P1666 CIRCULAR 0.376 0.000 0 0 1
P1667 CIRCULAR 0.375 0.000 0 0 1
P1668 EGG 0.860 0.000 0 0 1
P1669 CIRCULAR 0.300 0.000 0 0 1
P1670 CIRCULAR 0.375 0.000 0 0 1
P1671 CIRCULAR 0.500 0.000 0 0 1
P1672 CIRCULAR 0.400 0.000 0 0 1
P1673 CIRCULAR 0.375 0.000 0 0 1
P1674 CIRCULAR 0.296 0.000 0 0 1
P1675 CIRCULAR 0.200 0.000 0 0 1
P1676 CIRCULAR 0.296 0.000 0 0 1
P1677 CIRCULAR 0.375 0.000 0 0 1
P1678 CIRCULAR 0.234 0.000 0 0 1
P1679 CIRCULAR 0.800 0.000 0 0 1
P1680 CIRCULAR 0.300 0.000 0 0 1
P1681 CIRCULAR 0.297 0.000 0 0 1
P1682 CIRCULAR 0.500 0.000 0 0 1
P1683 CIRCULAR 0.296 0.000 0 0 1
P1684 CIRCULAR 0.300 0.000 0 0 1
P1685 CIRCULAR 0.400 0.000 0 0 1
P1686 CIRCULAR 0.296 0.000 0 0 1
P1687 CIRCULAR 0.297 0.000 0 0 1
P1688 CIRCULAR 0.188 0.000 0 0 1
P1689 CIRCULAR 0.500 0.000 0 0 1
P1690 CIRCULAR 0.375 0.000 0 0 1
P1691 CIRCULAR 0.480 0.000 0 0 1
P1692 CIRCULAR 0.593 0.000 0 0 1
P1693 CIRCULAR 0.900 0.000 0 0 1
P1694 CIRCULAR 0.400 0.000 0 0 1
P1695 CIRCULAR 0.300 0.000 0 0 1
P1696 CIRCULAR 0.297 0.000 0 0 1
P1697 CIRCULAR 0.250 0.000 0 0 1
P1698 CIRCULAR 0.590 0.000 0 0 1
P1699 CIRCULAR 0.600 0.000 0 0 1
P1700 CIRCULAR 0.296 0.000 0 0 1
P1701 CIRCULAR 0.593 0.000 0 0 1
P1702 CIRCULAR 0.300 0.000 0 0 1
P1703 CIRCULAR 0.235 0.000 0 0 1
P1704 CIRCULAR 0.300 0.000 0 0 1
P1705 CIRCULAR 0.600 0.000 0 0 1
P1706 CIRCULAR 0.250 0.000 0 0 1
P1707 CIRCULAR 0.500 0.000 0 0 1
P1708 CIRCULAR 0.296 0.000 0 0 1
P1709 CIRCULAR 0.297 0.000 0 0 1
P1710 CIRCULAR 0.400 0.000 0 0 1
P1711 CIRCULAR 0.400 0.000 0 0 1
P1712 CIRCULAR 0.188 0.000 0 0 1
P1713 CIRCULAR 0.296 0.000 0 0 1
P1714 CIRCULAR 0.600 0.000 0 0 1
P1715 CIRCULAR 0.296 0.000 0 0 1
P1716 CIRCULAR 0.500 0.000 0 0 1
P1717 CIRCULAR 0.297 0.000 0 0 1
P1718 CIRCULAR 1.000 0.000 0 0 1
P1719 CIRCULAR 0.800 0.000 0 0 1
P1720 CIRCULAR 0.296 0.000 0 0 1
P1721 CIRCULAR 0.296 0.000 0 0 1
P1722 CIRCULAR 0.375 0.000 0 0 1
P1723 CIRCULAR 0.400 0.000 0 0 1
P1724 CIRCULAR 0.400 0.000 0 0 1
P1725 CIRCULAR 0.188 0.000 0 0 1
P1726 CIRCULAR 0.600 0.000 0 0 1
P1727 CIRCULAR 0.297 0.000 0 0 1
P1728 CIRCULAR 0.296 0.000 0 0 1
P1729 CIRCULAR 0.700 0.000 0 0 1
P1730 CIRCULAR 0.400 0.000 0 0 1
P1731 EGG 0.710 0.000 0 0 1
P1732 CIRCULAR 0.375 0.000 0 0 1
P1733 CIRCULAR 0.235 0.000 0 0 1
P1734 CIRCULAR 0.593 0.000 0 0 1
P1735 CIRCULAR 1.000 0.000 0 0 1
P1736 CIRCULAR 0.297 0.000 0 0 1
P1737 CIRCULAR 0.470 0.000 0 0 1
P1738 CIRCULAR 0.400 0.000 0 0 1
P1739 CIRCULAR 0.296 0.000 0 0 1
P1740 CIRCULAR 0.400 0.000 0 0 1
P1741 CIRCULAR 0.500 0.000 0 0 1
P1742 CIRCULAR 0.234 0.000 0 0 1
P1743 CIRCULAR 0.296 0.000 0 0 1
P1744 CIRCULAR 0.400 0.000 0 0 1
P1745 CIRCULAR 0.234 0.000 0 0 1
P1746 CIRCULAR 0.296 0.000 0 0 1
P1747 CIRCULAR 0.400 0.000 0 0 1
P1748 CIRCULAR 0.400 0.000 0 0 1
P1749 CIRCULAR 0.300 0.000 0 0 1
P1750 CIRCULAR 0.375 0.000 0 0 1
P1751 CIRCULAR 0.500 0.000 0 0 1
P1752 CIRCULAR 0.600 0.000 0 0 1
P1753 CIRCULAR 0.300 0.000 0 0 1
P1754 CIRCULAR 0.300 0.000 0 0 1
P1755 EGG 0.700 0.000 0 0 1
P1756 CIRCULAR 0.296 0.000 0 0 1
P1757 CIRCULAR 0.296 0.000 0 0 1
P1758 CIRCULAR 0.600 0.000 0 0 1
P1759 CIRCULAR 0.600 0.000 0 0 1
P1760 CIRCULAR 0.375 0.000 0 0 1
P1761 RECT_CLOSED 1.000 0.850 0 0 1
P1762 CIRCULAR 0.296 0.000 0 0 1
P1763 CIRCULAR 0.297 0.000 0 0 1
P1764 CIRCULAR 0.188 0.000 0 0 1
P1765 CIRCULAR 0.250 0.000 0 0 1
P1766 CIRCULAR 0.295 0.000 0 0 1
P1767 CIRCULAR 0.296 0.000 0 0 1
P1768 CIRCULAR 0.500 0.000 0 0 1
P1769 CIRCULAR 0.400 0.000 0 0 1
P1770 CIRCULAR 0.470 0.000 0 0 1
P1771 CIRCULAR 0.200 0.000 0 0 1
P1772 CIRCULAR 0.400 0.000 0 0 1
P1773 CIRCULAR 0.800 0.000 0 0 1
P1774 RECT_CLOSED 1.500 0.770 0 0 1
P1775 CIRCULAR 0.400 0.000 0 0 1
P1776 CIRCULAR 0.600 0.000 0 0 1
P1777 CIRCULAR 0.700 0.000 0 0 1
P1778 CIRCULAR 0.470 0.000 0 0 1
P1779 CIRCULAR 0.400 0.000 0 0 1
P1780 CIRCULAR 0.590 0.000 0 0 1
P1781 CIRCULAR 0.296 0.000 0 0 1
P1782 CIRCULAR 0.296 0.000 0 0 1
P1783 CIRCULAR 0.400 0.000 0 0 1
P1784 CIRCULAR 0.500 0.000 0 0 1
P1785 CIRCULAR 0.297 0.000 0 0 1
P1786 CIRCULAR 0.500 0.000 0 0 1
P1787 CIRCULAR 0.480 0.000 0 0 1
P1788 CIRCULAR 0.250 0.000 0 0 1
P1789 CIRCULAR 0.296 0.000 0 0 1
P1790 CIRCULAR 0.800 0.000 0 0 1
P1791 CIRCULAR 0.296 0.000 0 0 1
P1792 CIRCULAR 0.188 0.000 0 0 1
P1793 CIRCULAR 0.400 0.000 0 0 1
P1794 CIRCULAR 0.297 0.000 0 0 1
P1795 CIRCULAR 0.376 0.000 0 0 1
P1796 EGG 0.860 0.000 0 0 1
P1797 CIRCULAR 0.296 0.000 0 0 1
P1798 CIRCULAR 0.400 0.000 0 0 1
P1799 CIRCULAR 0.375 0.000 0 0 1
P1800 CIRCULAR 0.500 0.000 0 0 1
P1801 CIRCULAR 0.297 0.000 0 0 1
P1802 CIRCULAR 0.234 0.000 0 0 1
P1803 CIRCULAR 0.297 0.000 0 0 1
P1804 CIRCULAR 0.297 0.000 0 0 1
P1805 CIRCULAR 1.000 0.000 0 0 1
P1806 CIRCULAR 0.600 0.000 0 0 1
P1807 CIRCULAR 0.600 0.000 0 0 1
P1808 CIRCULAR 0.375 0.000 0 0 1
P1809 CIRCULAR 0.600 0.000 0 0 1
P1810 CIRCULAR 0.300 0.000 0 0 1
P1811 CIRCULAR 0.500 0.000 0 0 1
P1812 CIRCULAR 0.380 0.000 0 0 1
P1813 CIRCULAR 0.188 0.000 0 0 1
P1814 CIRCULAR 0.297 0.000 0 0 1
P1815 CIRCULAR 0.500 0.000 0 0 1
P1816 CIRCULAR 0.500 0.000 0 0 1
P1817 CIRCULAR 0.700 0.000 0 0 1
P1818 CIRCULAR 0.235 0.000 0 0 1
P1819 CIRCULAR 0.400 0.000 0 0 1
P1820 CIRCULAR 0.375 0.000 0 0 1
P1821 CIRCULAR 0.400 0.000 0 0 1
P1822 CIRCULAR 0.400 0.000 0 0 1
P1823 CIRCULAR 0.500 0.000 0 0 1
P1824 CIRCULAR 0.300 0.000 0 0 1
P1825 CIRCULAR 0.500 0.000 0 0 1
P1826 CIRCULAR 0.500 0.000 0 0 1
P1827 CIRCULAR 0.300 0.000 0 0 1
P1828 CIRCULAR 0.250 0.000 0 0 1
P1829 CIRCULAR 0.296 0.000 0 0 1
P1830 CIRCULAR 0.376 0.000 0 0 1
P1831 CIRCULAR 0.400 0.000 0 0 1
P1832 CIRCULAR 0.375 0.000 0 0 1
P1833 CIRCULAR 0.297 0.000 0 0 1
P1834 CIRCULAR 0.296 0.000 0 0 1
P1835 CIRCULAR 0.400 0.000 0 0 1
P1836 CIRCULAR 0.376 0.000 0 0 1
P1837 CIRCULAR 0.800 0.000 0 0 1
P1838 CIRCULAR 0.297 0.000 0 0 1
P1839 CIRCULAR 0.250 0.000 0 0 1
P1840 CIRCULAR 0.296 0.000 0 0 1
P1841 CIRCULAR 0.296 0.000 0 0 1
P1842 CIRCULAR 0.188 0.000 0 0 1
P1843 CIRCULAR 0.400 0.000 0 0 1
P1844 CIRCULAR 0.500 0.000 0 0 1
P1845 CIRCULAR 0.300 0.000 0 0 1
P1846 CIRCULAR 0.480 0.000 0 0 1
P1847 CIRCULAR 0.700 0.000 0 0 1
P1848 CIRCULAR 0.375 0.000 0 0 1
P1849 CIRCULAR 0.466 0.000 0 0 1
P1850 CIRCULAR 0.300 0.000 0 0 1
P1851 CIRCULAR 0.296 0.000 0 0 1
P1852 CIRCULAR 0.400 0.000 0 0 1
P1853 CIRCULAR 0.300 0.000 0 0 1
P1854 CIRCULAR 0.188 0.000 0 0 1
P1855 CIRCULAR 0.188 0.000 0 0 1
P1856 CIRCULAR 0.297 0.000 0 0 1
P1857 CIRCULAR 0.234 0.000 0 0 1
P1858 CIRCULAR 0.400 0.000 0 0 1
P1859 CIRCULAR 0.300 0.000 0 0 1
P1860 CIRCULAR 0.500 0.000 0 0 1
P1861 CIRCULAR 0.400 0.000 0 0 1
P1862 CIRCULAR 0.500 0.000 0 0 1
P1863 CIRCULAR 0.400 0.000 0 0 1
P1864 CIRCULAR 0.296 0.000 0 0 1
P1865 CIRCULAR 0.376 0.000 0 0 1
P1866 CIRCULAR 0.300 0.000 0 0 1
P1867 CIRCULAR 0.375 0.000 0 0 1
P1868 CIRCULAR 0.188 0.000 0 0 1
P1869 CIRCULAR 0.500 0.000 0 0 1
P1870 CIRCULAR 0.150 0.000 0 0 1
P1871 CIRCULAR 0.296 0.000 0 0 1
P1872 CIRCULAR 0.400 0.000 0 0 1
P1873 CIRCULAR 0.375 0.000 0 0 1
P1874 CIRCULAR 0.300 0.000 0 0 1
P1875 CIRCULAR 0.297 0.000 0 0 1
P1876 CIRCULAR 0.400 0.000 0 0 1
P1877 CIRCULAR 0.300 0.000 0 0 1
P1878 CIRCULAR 0.600 0.000 0 0 1
P1879 CIRCULAR 0.296 0.000 0 0 1
P1880 CIRCULAR 0.593 0.000 0 0 1
P1881 CIRCULAR 0.297 0.000 0 0 1
P1882 CIRCULAR 0.296 0.000 0 0 1
P1883 CIRCULAR 0.188 0.000 0 0 1
P1884 CIRCULAR 0.235 0.000 0 0 1
P1885 CIRCULAR 0.297 0.000 0 0 1
P1886 CIRCULAR 0.235 0.000 0 0 1
P1887 CIRCULAR 0.297 0.000 0 0 1
P1888 CIRCULAR 0.300 0.000 0 0 1
P1889 CIRCULAR 0.593 0.000 0 0 1
P1890 CIRCULAR 0.297 0.000 0 0 1
P1891 CIRCULAR 0.300 0.000 0 0 1
P1892 CIRCULAR 0.300 0.000 0 0 1
P1893 CIRCULAR 0.500 0.000 0 0 1
P1894 CIRCULAR 0.297 0.000 0 0 1
P1895 CIRCULAR 0.600 0.000 0 0 1
P1896 CIRCULAR 0.296 0.000 0 0 1
P1897 CIRCULAR 0.300 0.000 0 0 1
P1898 CIRCULAR 0.296 0.000 0 0 1
P1899 CIRCULAR 0.600 0.000 0 0 1
P1900 CIRCULAR 0.297 0.000 0 0 1
P1901 CIRCULAR 0.500 0.000 0 0 1
P1902 CIRCULAR 0.400 0.000 0 0 1
P1903 CIRCULAR 0.380 0.000 0 0 1
P1904 CIRCULAR 0.600 0.000 0 0 1
P1905 CIRCULAR 0.400 0.000 0 0 1
P1906 CIRCULAR 0.400 0.000 0 0 1
P1907 CIRCULAR 0.375 0.000 0 0 1
P1908 CIRCULAR 0.296 0.000 0 0 1
P1909 CIRCULAR 0.500 0.000 0 0 1
P1910 CIRCULAR 0.300 0.000 0 0 1
P1911 CIRCULAR 0.296 0.000 0 0 1
P1912 CIRCULAR 0.400 0.000 0 0 1
P1913 CIRCULAR 0.470 0.000 0 0 1
P1914 CIRCULAR 0.500 0.000 0 0 1
P1915 CIRCULAR 0.593 0.000 0 0 1
P1916 EGG 0.860 0.000 0 0 1
P1917 CIRCULAR 0.488 0.000 0 0 1
P1918 RECT_CLOSED 0.220 0.220 0 0 1
P1919 EGG 0.860 0.000 0 0 1
P1920 CIRCULAR 0.600 0.000 0 0 1
P1921 CIRCULAR 0.375 0.000 0 0 1
P1922 CIRCULAR 0.470 0.000 0 0 1
P1923 CIRCULAR 0.500 0.000 0 0 1
P1924 CIRCULAR 0.300 0.000 0 0 1
P1925 CIRCULAR 0.234 0.000 0 0 1
P1926 CIRCULAR 0.300 0.000 0 0 1
P1927 CIRCULAR 0.600 0.000 0 0 1
P1928 CIRCULAR 0.480 0.000 0 0 1
P1929 CIRCULAR 0.300 0.000 0 0 1
P1930 CIRCULAR 0.250 0.000 0 0 1
P1931 CIRCULAR 0.400 0.000 0 0 1
P1932 CIRCULAR 1.000 0.000 0 0 1
P1933 CIRCULAR 0.500 0.000 0 0 1
P1934 CIRCULAR 0.234 0.000 0 0 1
P1935 CIRCULAR 0.600 0.000 0 0 1
P1936 EGG 0.710 0.000 0 0 1
P1937 CIRCULAR 0.800 0.000 0 0 1
P1938 CIRCULAR 0.600 0.000 0 0 1
P1939 CIRCULAR 0.296 0.000 0 0 1
P1940 CIRCULAR 0.188 0.000 0 0 1
P1941 CIRCULAR 0.295 0.000 0 0 1
P1942 CIRCULAR 0.600 0.000 0 0 1
P1943 CIRCULAR 1.000 0.000 0 0 1
P1944 CIRCULAR 0.480 0.000 0 0 1
P1945 CIRCULAR 0.296 0.000 0 0 1
P1946 CIRCULAR 0.188 0.000 0 0 1
P1947 CIRCULAR 0.400 0.000 0 0 1
P1948 CIRCULAR 0.500 0.000 0 0 1
P1949 CIRCULAR 0.500 0.000 0 0 1
P1950 CIRCULAR 1.000 0.000 0 0 1
P1951 CIRCULAR 0.500 0.000 0 0 1
P1952 CIRCULAR 0.297 0.000 0 0 1
P1953 CIRCULAR 0.296 0.000 0 0 1
P1954 CIRCULAR 0.297 0.000 0 0 1
P1955 CIRCULAR 0.297 0.000 0 0 1
P1956 CIRCULAR 0.375 0.000 0 0 1
P1957 CIRCULAR 0.188 0.000 0 0 1
P1958 CIRCULAR 0.296 0.000 0 0 1
P1959 CIRCULAR 0.297 0.000 0 0 1
P1960 CIRCULAR 0.297 0.000 0 0 1
P1961 CIRCULAR 0.470 0.000 0 0 1
P1962 CIRCULAR 0.296 0.000 0 0 1
P1963 CIRCULAR 0.600 0.000 0 0 1
P1964 CIRCULAR 0.297 0.000 0 0 1
P1965 CIRCULAR 0.188 0.000 0 0 1
P1966 CIRCULAR 0.300 0.000 0 0 1
P1967 CIRCULAR 0.297 0.000 0 0 1
P1968 CIRCULAR 0.234 0.000 0 0 1
P1969 CIRCULAR 0.593 0.000 0 0 1
P1970 CIRCULAR 0.297 0.000 0 0 1
P1971 CIRCULAR 0.296 0.000 0 0 1
P1972 CIRCULAR 0.296 0.000 0 0 1
P1973 CIRCULAR 0.600 0.000 0 0 1
P1974 CIRCULAR 0.400 0.000 0 0 1
P1975 CIRCULAR 0.300 0.000 0 0 1
P1976 CIRCULAR 0.400 0.000 0 0 1
P1977 CIRCULAR 0.500 0.000 0 0 1
P1978 CIRCULAR 0.500 0.000 0 0 1
P1979 CIRCULAR 0.297 0.000 0 0 1
P1980 CIRCULAR 0.500 0.000 0 0 1
P1981 CIRCULAR 0.400 0.000 0 0 1
P1982 CIRCULAR 0.250 0.000 0 0 1
P1983 RECT_CLOSED 0.200 0.200 0 0 1
P1984 CIRCULAR 0.234 0.000 0 0 1
P1985 CIRCULAR 0.297 0.000 0 0 1
P1986 CIRCULAR 0.400 0.000 0 0 1
P1987 CIRCULAR 0.400 0.000 0 0 1
P1988 CIRCULAR 0.400 0.000 0 0 1
P1989 CIRCULAR 0.600 0.000 0 0 1
P1990 CIRCULAR 0.235 0.000 0 0 1
P1991 CIRCULAR 0.500 0.000 0 0 1
P1992 CIRCULAR 0.200 0.000 0 0 1
P1993 CIRCULAR 0.400 0.000 0 0 1
P1994 CIRCULAR 0.300 0.000 0 0 1
P1995 CIRCULAR 0.500 0.000 0 0 1
P1996 CIRCULAR 0.297 0.000 0 0 1
P1997 CIRCULAR 0.296 0.000 0 0 1
P1998 CIRCULAR 0.296 0.000 0 0 1
P1999 CIRCULAR 0.235 0.000 0 0 1
P2000 CIRCULAR 0.300 0.000 0 0 1
P2001 CIRCULAR 0.297 0.000 0 0 1
P2002 CIRCULAR 0.500 0.000 0 0 1
P2003 CIRCULAR 0.376 0.000 0 0 1
P2004 CIRCULAR 0.400 0.000 0 0 1
P2005 CIRCULAR 0.400 0.000 0 0 1
P2006 CIRCULAR 0.375 0.000 0 0 1
P2007 CIRCULAR 0.188 0.000 0 0 1
P2008 CIRCULAR 0.300 0.000 0 0 1
P2009 CIRCULAR 0.296 0.000 0 0 1
P2010 CIRCULAR 0.400 0.000 0 0 1
P2011 CIRCULAR 0.700 0.000 0 0 1
P2012 CIRCULAR 0.700 0.000 0 0 1
P2013 CIRCULAR 0.150 0.000 0 0 1
P2014 CIRCULAR 0.296 0.000 0 0 1
P2015 CIRCULAR 0.296 0.000 0 0 1
P2016 CIRCULAR 0.300 0.000 0 0 1
P2017 CIRCULAR 0.296 0.000 0 0 1
P2018 CIRCULAR 0.188 0.000 0 0 1
P2019 CIRCULAR 0.296 0.000 0 0 1
P2020 CIRCULAR 0.296 0.000 0 0 1
P2021 CIRCULAR 0.296 0.000 0 0 1
P2022 CIRCULAR 0.200 0.000 0 0 1
P2023 CIRCULAR 0.466 0.000 0 0 1
P2024 CIRCULAR 0.300 0.000 0 0 1
P2025 CIRCULAR 0.500 0.000 0 0 1
P2026 CIRCULAR 0.600 0.000 0 0 1
P2027 CIRCULAR 0.400 0.000 0 0 1
P2028 CIRCULAR 0.400 0.000 0 0 1
P2029 CIRCULAR 0.297 0.000 0 0 1
P2030 CIRCULAR 0.297 0.000 0 0 1
P2031 CIRCULAR 0.375 0.000 0 0 1
P2032 CIRCULAR 0.376 0.000 0 0 1
P2033 CIRCULAR 0.297 0.000 0 0 1
P2034 CIRCULAR 0.500 0.000 0 0 1
P2035 CIRCULAR 0.466 0.000 0 0 1
P2036 CIRCULAR 0.300 0.000 0 0 1
P2037 CIRCULAR 0.296 0.000 0 0 1
P2038 CIRCULAR 0.466 0.000 0 0 1
P2039 CIRCULAR 0.440 0.000 0 0 1
P2040 CIRCULAR 0.235 0.000 0 0 1
P2041 CIRCULAR 0.500 0.000 0 0 1
P2042 CIRCULAR 0.600 0.000 0 0 1
P2043 CIRCULAR 0.296 0.000 0 0 1
P2044 RECT_CLOSED 0.650 0.540 0 0 1
P2045 CIRCULAR 0.297 0.000 0 0 1
P2046 RECT_CLOSED 0.220 0.220 0 0 1
P2047 CIRCULAR 0.500 0.000 0 0 1
P2048 CIRCULAR 0.296 0.000 0 0 1
P2049 CIRCULAR 0.500 0.000 0 0 1
P2050 CIRCULAR 0.600 0.000 0 0 1
P2051 CIRCULAR 0.188 0.000 0 0 1
P2052 CIRCULAR 0.296 0.000 0 0 1
P2053 CIRCULAR 0.235 0.000 0 0 1
P2054 CIRCULAR 0.300 0.000 0 0 1
P2055 CIRCULAR 0.297 0.000 0 0 1
P2056 CIRCULAR 0.375 0.000 0 0 1
P2057 CIRCULAR 0.600 0.000 0 0 1
P2058 CIRCULAR 0.235 0.000 0 0 1
P2059 CIRCULAR 0.500 0.000 0 0 1
P2060 CIRCULAR 0.235 0.000 0 0 1
P2061 CIRCULAR 0.600 0.000 0 0 1
P2062 CIRCULAR 0.500 0.000 0 0 1
P2063 CIRCULAR 0.375 0.000 0 0 1
P2064 CIRCULAR 0.480 0.000 0 0 1
P2065 CIRCULAR 0.400 0.000 0 0 1
P2066 CIRCULAR 0.296 0.000 0 0 1
P2067 CIRCULAR 0.296 0.000 0 0 1
P2068 CIRCULAR 0.400 0.000 0 0 1
P2069 RECT_CLOSED 0.200 0.200 0 0 1
P2070 CIRCULAR 0.296 0.000 0 0 1
P2071 CIRCULAR 0.297 0.000 0 0 1
P2072 CIRCULAR 0.297 0.000 0 0 1
P2073 CIRCULAR 0.593 0.000 0 0 1
P2074 CIRCULAR 0.235 0.000 0 0 1
P2075 CIRCULAR 0.297 0.000 0 0 1
P2076 CIRCULAR 0.297 0.000 0 0 1
P2077 CIRCULAR 0.500 0.000 0 0 1
P2078 CIRCULAR 0.297 0.000 0 0 1
P2079 CIRCULAR 0.500 0.000 0 0 1
P2080 CIRCULAR 0.700 0.000 0 0 1
P2081 CIRCULAR 0.250 0.000 0 0 1
P2082 CIRCULAR 0.296 0.000 0 0 1
P2083 CIRCULAR 0.500 0.000 0 0 1
P2084 CIRCULAR 0.235 0.000 0 0 1
P2085 CIRCULAR 0.296 0.000 0 0 1
P2086 CIRCULAR 0.375 0.000 0 0 1
P2087 CIRCULAR 0.297 0.000 0 0 1
P2088 CIRCULAR 0.600 0.000 0 0 1
P2089 CIRCULAR 0.400 0.000 0 0 1
P2090 CIRCULAR 0.400 0.000 0 0 1
P2091 CIRCULAR 0.500 0.000 0 0 1
P2092 CIRCULAR 0.296 0.000 0 0 1
P2093 CIRCULAR 0.297 0.000 0 0 1
P2094 CIRCULAR 0.296 0.000 0 0 1
P2095 CIRCULAR 0.235 0.000 0 0 1
P2096 CIRCULAR 0.500 0.000 0 0 1
P2097 CIRCULAR 0.500 0.000 0 0 1
P2098 CIRCULAR 0.297 0.000 0 0 1
P2099 CIRCULAR 0.500 0.000 0 0 1
P2100 CIRCULAR 0.297 0.000 0 0 1
P2101 CIRCULAR 0.300 0.000 0 0 1
P2102 CIRCULAR 0.600 0.000 0 0 1
P2103 CIRCULAR 0.400 0.000 0 0 1
P2104 CIRCULAR 0.300 0.000 0 0 1
P2105 CIRCULAR 0.376 0.000 0 0 1
P2106 CIRCULAR 0.600 0.000 0 0 1
P2107 CIRCULAR 0.297 0.000 0 0 1
P2108 CIRCULAR 0.400 0.000 0 0 1
P2109 CIRCULAR 0.375 0.000 0 0 1
P2110 CIRCULAR 0.300 0.000 0 0 1
P2111 CIRCULAR 0.235 0.000 0 0 1
P2112 CIRCULAR 0.500 0.000 0 0 1
P2113 CIRCULAR 0.188 0.000 0 0 1
P2114 CIRCULAR 0.954 0.000 0 0 1
P2115 CIRCULAR 0.400 0.000 0 0 1
P2116 CIRCULAR 0.375 0.000 0 0 1
P2117 CIRCULAR 0.375 0.000 0 0 1
P2118 CIRCULAR 0.700 0.000 0 0 1
P2119 CIRCULAR 0.296 0.000 0 0 1
P2120 CIRCULAR 0.300 0.000 0 0 1
P2121 CIRCULAR 0.296 0.000 0 0 1
P2122 CIRCULAR 0.800 0.000 0 0 1
P2123 EGG 0.860 0.000 0 0 1
P2124 CIRCULAR 0.297 0.000 0 0 1
P2125 CIRCULAR 0.295 0.000 0 0 1
P2126 CIRCULAR 0.300 0.000 0 0 1
P2127 CIRCULAR 0.188 0.000 0 0 1
P2128 CIRCULAR 0.250 0.000 0 0 1
P2129 CIRCULAR 0.500 0.000 0 0 1
P2130 RECT_CLOSED 0.220 0.220 0 0 1
P2131 CIRCULAR 0.250 0.000 0 0 1
P2132 CIRCULAR 0.400 0.000 0 0 1
P2133 CIRCULAR 0.300 0.000 0 0 1
P2134 CIRCULAR 0.296 0.000 0 0 1
P2135 CIRCULAR 0.400 0.000 0 0 1
P2136 CIRCULAR 0.296 0.000 0 0 1
P2137 CIRCULAR 0.500 0.000 0 0 1
P2138 CIRCULAR 0.235 0.000 0 0 1
P2139 CIRCULAR 0.300 0.000 0 0 1
P2140 CIRCULAR 0.296 0.000 0 0 1
P2141 CIRCULAR 0.188 0.000 0 0 1
P2142 CIRCULAR 0.500 0.000 0 0 1
P2143 CIRCULAR 0.188 0.000 0 0 1
P2144 CIRCULAR 0.470 0.000 0 0 1
P2145 CIRCULAR 0.296 0.000 0 0 1
P2146 CIRCULAR 0.297 0.000 0 0 1
P2147 CIRCULAR 0.500 0.000 0 0 1
P2148 CIRCULAR 0.385 0.000 0 0 1
P2149 CIRCULAR 0.600 0.000 0 0 1
P2150 CIRCULAR 0.400 0.000 0 0 1
P2151 CIRCULAR 0.296 0.000 0 0 1
P2152 CIRCULAR 0.300 0.000 0 0 1
P2153 CIRCULAR 0.500 0.000 0 0 1
P2154 CIRCULAR 0.800 0.000 0 0 1
P2155 CIRCULAR 0.250 0.000 0 0 1
P2156 CIRCULAR 0.296 0.000 0 0 1
P2157 CIRCULAR 0.300 0.000 0 0 1
P2158 CIRCULAR 0.376 0.000 0 0 1
P2159 CIRCULAR 0.296 0.000 0 0 1
P2160 CIRCULAR 0.500 0.000 0 0 1
P2161 CIRCULAR 0.600 0.000 0 0 1
P2162 CIRCULAR 0.297 0.000 0 0 1
P2163 CIRCULAR 0.600 0.000 0 0 1
P2164 CIRCULAR 0.296 0.000 0 0 1
P2165 CIRCULAR 0.296 0.000 0 0 1
P2166 CIRCULAR 0.375 0.000 0 0 1
P2167 CIRCULAR 0.235 0.000 0 0 1
P2168 CIRCULAR 0.375 0.000 0 0 1
P2169 CIRCULAR 0.117 0.000 0 0 1
P2170 CIRCULAR 0.375 0.000 0 0 1
P2171 CIRCULAR 0.800 0.000 0 0 1
P2172 CIRCULAR 0.296 0.000 0 0 1
P2173 CIRCULAR 0.296 0.000 0 0 1
P2174 CIRCULAR 0.297 0.000 0 0 1
P2175 CIRCULAR 0.600 0.000 0 0 1
P2176 CIRCULAR 0.600 0.000 0 0 1
P2177 CIRCULAR 0.500 0.000 0 0 1
P2178 CIRCULAR 0.376 0.000 0 0 1
P2179 CIRCULAR 0.297 0.000 0 0 1
P2180 CIRCULAR 0.375 0.000 0 0 1
P2181 CIRCULAR 0.300 0.000 0 0 1
P2182 CIRCULAR 0.470 0.000 0 0 1
P2183 CIRCULAR 0.600 0.000 0 0 1
P2184 CIRCULAR 0.466 0.000 0 0 1
P2185 CIRCULAR 0.500 0.000 0 0 1
P2186 CIRCULAR 0.188 0.000 0 0 1
P2187 CIRCULAR 0.800 0.000 0 0 1
P2188 CIRCULAR 0.297 0.000 0 0 1
P2189 CIRCULAR 0.400 0.000 0 0 1
P2190 CIRCULAR 0.296 0.000 0 0 1
P2191 CIRCULAR 0.296 0.000 0 0 1
P2192 CIRCULAR 0.235 0.000 0 0 1
P2193 CIRCULAR 0.593 0.000 0 0 1
P2194 CIRCULAR 0.235 0.000 0 0 1
P2195 CIRCULAR 0.400 0.000 0 0 1
P2196 CIRCULAR 0.300 0.000 0 0 1
P2197 CIRCULAR 0.297 0.000 0 0 1
P2198 CIRCULAR 0.400 0.000 0 0 1
P2199 CIRCULAR 0.300 0.000 0 0 1
P2200 CIRCULAR 0.250 0.000 0 0 1
P2201 CIRCULAR 0.500 0.000 0 0 1
P2202 CIRCULAR 0.600 0.000 0 0 1
P2203 CIRCULAR 0.297 0.000 0 0 1
P2204 CIRCULAR 0.590 0.000 0 0 1
P2205 CIRCULAR 0.500 0.000 0 0 1
P2206 CIRCULAR 0.297 0.000 0 0 1
P2207 CIRCULAR 0.296 0.000 0 0 1
P2208 CIRCULAR 0.470 0.000 0 0 1
P2209 CIRCULAR 0.700 0.000 0 0 1
P2210 CIRCULAR 0.234 0.000 0 0 1
P2211 RECT_CLOSED 0.220 0.220 0 0 1
P2212 CIRCULAR 0.466 0.000 0 0 1
P2213 CIRCULAR 0.235 0.000 0 0 1
P2214 CIRCULAR 0.600 0.000 0 0 1
P2215 CIRCULAR 1.000 0.000 0 0 1
P2216 CIRCULAR 0.500 0.000 0 0 1
P2217 CIRCULAR 0.700 0.000 0 0 1
P2218 CIRCULAR 0.480 0.000 0 0 1
P2219 CIRCULAR 0.500 0.000 0 0 1
P2220 CIRCULAR 0.235 0.000 0 0 1
P2221 CIRCULAR 0.300 0.000 0 0 1
P2222 CIRCULAR 0.500 0.000 0 0 1
P2223 CIRCULAR 0.297 0.000 0 0 1
P2224 CIRCULAR 0.376 0.000 0 0 1
P2225 CIRCULAR 0.500 0.000 0 0 1
P2226 CIRCULAR 0.400 0.000 0 0 1
P2227 CIRCULAR 0.400 0.000 0 0 1
P2228 CIRCULAR 0.235 0.000 0 0 1
P2229 CIRCULAR 0.296 0.000 0 0 1
P2230 CIRCULAR 0.296 0.000 0 0 1
P2231 CIRCULAR 0.400 0.000 0 0 1
P2232 CIRCULAR 0.600 0.000 0 0 1
P2233 CIRCULAR 0.296 0.000 0 0 1
P2234 CIRCULAR 0.800 0.000 0 0 1
P2235 CIRCULAR 0.279 0.000 0 0 1
P2236 CIRCULAR 0.400 0.000 0 0 1
P2237 CIRCULAR 0.296 0.000 0 0 1
P2238 CIRCULAR 0.500 0.000 0 0 1
P2239 CIRCULAR 0.400 0.000 0 0 1
P2240 CIRCULAR 0.296 0.000 0 0 1
P2241 CIRCULAR 0.762 0.000 0 0 1
P2242 CIRCULAR 0.235 0.000 0 0 1
P2243 CIRCULAR 0.500 0.000 0 0 1
P2244 CIRCULAR 0.117 0.000 0 0 1
P2245 CIRCULAR 0.296 0.000 0 0 1
P2246 CIRCULAR 0.375 0.000 0 0 1
P2247 CIRCULAR 0.400 0.000 0 0 1
P2248 CIRCULAR 0.296 0.000 0 0 1
P2249 CIRCULAR 0.296 0.000 0 0 1
P2250 CIRCULAR 0.600 0.000 0 0 1
P2251 EGG 0.860 0.000 0 0 1
P2252 CIRCULAR 1.000 0.000 0 0 1
P2253 CIRCULAR 0.296 0.000 0 0 1
P2254 CIRCULAR 0.375 0.000 0 0 1
P2255 CIRCULAR 0.480 0.000 0 0 1
P2256 CIRCULAR 0.296 0.000 0 0 1
P2257 CIRCULAR 0.376 0.000 0 0 1
P2258 CIRCULAR 0.800 0.000 0 0 1
P2259 CIRCULAR 0.400 0.000 0 0 1
P2260 CIRCULAR 0.500 0.000 0 0 1
P2261 CIRCULAR 0.297 0.000 0 0 1
P2262 CIRCULAR 0.500 0.000 0 0 1
P2263 CIRCULAR 0.593 0.000 0 0 1
P2264 CIRCULAR 0.300 0.000 0 0 1
P2265 CIRCULAR 0.188 0.000 0 0 1
P2266 CIRCULAR 0.470 0.000 0 0 1
P2267 CIRCULAR 0.376 0.000 0 0 1
P2268 CIRCULAR 0.375 0.000 0 0 1
P2269 CIRCULAR 0.500 0.000 0 0 1
P2270 CIRCULAR 0.250 0.000 0 0 1
P2271 CIRCULAR 0.375 0.000 0 0 1
P2272 CIRCULAR 0.297 0.000 0 0 1
P2273 CIRCULAR 0.400 0.000 0 0 1
P2274 CIRCULAR 0.380 0.000 0 0 1
P2275 CIRCULAR 0.235 0.000 0 0 1
P2276 CIRCULAR 0.300 0.000 0 0 1
P2277 CIRCULAR 0.297 0.000 0 0 1
P2278 CIRCULAR 0.400 0.000 0 0 1
P2279 CIRCULAR 0.375 0.000 0 0 1
P2280 CIRCULAR 0.400 0.000 0 0 1
P2281 EGG 0.710 0.000 0 0 1
P2282 CIRCULAR 0.600 0.000 0 0 1
P2283 CIRCULAR 0.600 0.000 0 0 1
P2284 CIRCULAR 0.500 0.000 0 0 1
P2285 CIRCULAR 0.235 0.000 0 0 1
P2286 CIRCULAR 0.500 0.000 0 0 1
P2287 CIRCULAR 0.250 0.000 0 0 1
P2288 CIRCULAR 0.296 0.000 0 0 1
P2289 CIRCULAR 0.400 0.000 0 0 1
P2290 CIRCULAR 0.296 0.000 0 0 1
P2291 CIRCULAR 0.800 0.000 0 0 1
P2292 CIRCULAR 0.400 0.000 0 0 1
P2293 CIRCULAR 0.600 0.000 0 0 1
P2294 CIRCULAR 0.250 0.000 0 0 1
P2295 CIRCULAR 0.296 0.000 0 0 1
P2296 CIRCULAR 0.400 0.000 0 0 1
P2297 CIRCULAR 0.297 0.000 0 0 1
P2298 CIRCULAR 0.700 0.000 0 0 1
P2299 CIRCULAR 0.466 0.000 0 0 1
P2300 CIRCULAR 0.480 0.000 0 0 1
P2301 CIRCULAR 0.400 0.000 0 0 1
P2302 CIRCULAR 0.500 0.000 0 0 1
P2303 CIRCULAR 0.235 0.000 0 0 1
P2304 CIRCULAR 0.234 0.000 0 0 1
P2305 CIRCULAR 0.600 0.000 0 0 1
P2306 CIRCULAR 0.400 0.000 0 0 1
P2307 CIRCULAR 0.296 0.000 0 0 1
P2308 CIRCULAR 0.297 0.000 0 0 1
P2309 CIRCULAR 0.296 0.000 0 0 1
P2310 CIRCULAR 0.300 0.000 0 0 1
P2311 CIRCULAR 0.296 0.000 0 0 1
P2312 CIRCULAR 0.400 0.000 0 0 1
P2313 CIRCULAR 0.500 0.000 0 0 1
P2314 CIRCULAR 0.297 0.000 0 0 1
P2315 CIRCULAR 0.300 0.000 0 0 1
P2316 CIRCULAR 0.400 0.000 0 0 1
P2317 CIRCULAR 0.296 0.000 0 0 1
P2318 CIRCULAR 0.296 0.000 0 0 1
P2319 CIRCULAR 0.188 0.000 0 0 1
P2320 CIRCULAR 0.400 0.000 0 0 1
P2321 CIRCULAR 0.296 0.000 0 0 1
P2322 CIRCULAR 0.150 0.000 0 0 1
P2323 CIRCULAR 0.600 0.000 0 0 1
P2324 CIRCULAR 0.600 0.000 0 0 1
P2325 CIRCULAR 0.300 0.000 0 0 1
P2326 CIRCULAR 0.500 0.000 0 0 1
P2327 CIRCULAR 0.296 0.000 0 0 1
P2328 CIRCULAR 0.296 0.000 0 0 1
P2329 CIRCULAR 0.297 0.000 0 0 1
P2330 CIRCULAR 0.297 0.000 0 0 1
P2331 CIRCULAR 0.400 0.000 0 0 1
P2332 CIRCULAR 0.500 0.000 0 0 1
P2333 CIRCULAR 0.300 0.000 0 0 1
P2334 CIRCULAR 0.400 0.000 0 0 1
P2335 CIRCULAR 0.376 0.000 0 0 1
P2336 CIRCULAR 0.600 0.000 0 0 1
P2337 CIRCULAR 0.188 0.000 0 0 1
P2338 CIRCULAR 0.500 0.000 0 0 1
P2339 CIRCULAR 0.376 0.000 0 0 1
P2340 CIRCULAR 0.300 0.000 0 0 1
P2341 CIRCULAR 0.500 0.000 0 0 1
P2342 CIRCULAR 0.250 0.000 0 0 1
P2343 CIRCULAR 0.400 0.000 0 0 1
P2344 CIRCULAR 0.297 0.000 0 0 1
P2345 CIRCULAR 0.296 0.000 0 0 1
P2346 CIRCULAR 0.296 0.000 0 0 1
P2347 CIRCULAR 0.500 0.000 0 0 1
P2348 CIRCULAR 0.297 0.000 0 0 1
P2349 CIRCULAR 0.400 0.000 0 0 1
P2350 CIRCULAR 0.375 0.000 0 0 1
P2351 CIRCULAR 0.235 0.000 0 0 1
P2352 CIRCULAR 0.500 0.000 0 0 1
P2353 CIRCULAR 0.296 0.000 0 0 1
P2354 CIRCULAR 0.470 0.000 0 0 1
P2355 CIRCULAR 0.297 0.000 0 0 1
P2356 CIRCULAR 0.296 0.000 0 0 1
P2357 CIRCULAR 0.600 0.000 0 0 1
P2358 EGG 0.860 0.000 0 0 1
P2359 CIRCULAR 0.400 0.000 0 0 1
P2360 CIRCULAR 0.250 0.000 0 0 1
P2361 CIRCULAR 0.296 0.000 0 0 1
P2362 CIRCULAR 0.800 0.000 0 0 1
P2363 CIRCULAR 0.296 0.000 0 0 1
P2364 CIRCULAR 0.297 0.000 0 0 1
P2365 CIRCULAR 0.297 0.000 0 0 1
P2366 CIRCULAR 0.800 0.000 0 0 1
P2367 CIRCULAR 0.800 0.000 0 0 1
P2368 CIRCULAR 0.600 0.000 0 0 1
P2369 CIRCULAR 0.375 0.000 0 0 1
P2370 CIRCULAR 0.296 0.000 0 0 1
P2371 CIRCULAR 0.600 0.000 0 0 1
P2372 CIRCULAR 0.375 0.000 0 0 1
P2373 CIRCULAR 0.235 0.000 0 0 1
P2374 CIRCULAR 0.500 0.000 0 0 1
P2375 CIRCULAR 0.375 0.000 0 0 1
P2376 CIRCULAR 0.300 0.000 0 0 1
P2377 CIRCULAR 0.300 0.000 0 0 1
P2378 CIRCULAR 0.297 0.000 0 0 1
P2379 CIRCULAR 0.300 0.000 0 0 1
P2380 CIRCULAR 0.296 0.000 0 0 1
P2381 CIRCULAR 0.400 0.000 0 0 1
P2382 CIRCULAR 0.296 0.000 0 0 1
P2383 CIRCULAR 0.297 0.000 0 0 1
P2384 CIRCULAR 0.300 0.000 0 0 1
P2385 CIRCULAR 0.296 0.000 0 0 1
P2386 CIRCULAR 0.375 0.000 0 0 1
P2387 CIRCULAR 0.500 0.000 0 0 1
P2388 CIRCULAR 0.400 0.000 0 0 1
P2389 CIRCULAR 0.188 0.000 0 0 1
P2390 CIRCULAR 0.400 0.000 0 0 1
P2391 CIRCULAR 0.297 0.000 0 0 1
P2392 CIRCULAR 0.296 0.000 0 0 1
P2393 CIRCULAR 0.375 0.000 0 0 1
P2394 CIRCULAR 0.500 0.000 0 0 1
P2395 EGG 0.710 0.000 0 0 1
P2396 RECT_CLOSED 0.900 0.500 0 0 1
P2397 CIRCULAR 0.300 0.000 0 0 1
P2398 CIRCULAR 0.400 0.000 0 0 1
P2399 CIRCULAR 0.400 0.000 0 0 1
P2400 CIRCULAR 0.400 0.000 0 0 1
P2401 CIRCULAR 0.296 0.000 0 0 1
P2402 CIRCULAR 0.470 0.000 0 0 1
P2403 CIRCULAR 0.600 0.000 0 0 1
P2404 CIRCULAR 0.400 0.000 0 0 1
P2405 CIRCULAR 0.500 0.000 0 0 1
P2406 CIRCULAR 0.376 0.000 0 0 1
P2407 CIRCULAR 0.250 0.000 0 0 1
P2408 CIRCULAR 0.297 0.000 0 0 1
P2409 CIRCULAR 0.188 0.000 0 0 1
P2410 CIRCULAR 0.300 0.000 0 0 1
P2411 CIRCULAR 0.300 0.000 0 0 1
P2412 CIRCULAR 0.296 0.000 0 0 1
P2413 CIRCULAR 0.400 0.000 0 0 1
P2414 CIRCULAR 0.296 0.000 0 0 1
P2415 CIRCULAR 0.300 0.000 0 0 1
P2416 CIRCULAR 0.600 0.000 0 0 1
P2417 CIRCULAR 0.296 0.000 0 0 1
P2418 CIRCULAR 0.300 0.000 0 0 1
P2419 CIRCULAR 0.297 0.000 0 0 1
P2420 CIRCULAR 0.400 0.000 0 0 1
P2421 CIRCULAR 0.300 0.000 0 0 1
P2422 CIRCULAR 0.400 0.000 0 0 1
P2423 CIRCULAR 0.400 0.000 0 0 1
P2424 CIRCULAR 0.296 0.000 0 0 1
P2425 CIRCULAR 0.800 0.000 0 0 1
P2426 CIRCULAR 0.376 0.000 0 0 1
P2427 CIRCULAR 0.375 0.000 0 0 1
P2428 CIRCULAR 0.300 0.000 0 0 1
P2429 CIRCULAR 0.250 0.000 0 0 1
P2430 CIRCULAR 0.600 0.000 0 0 1
P2431 CIRCULAR 0.470 0.000 0 0 1
P2432 CIRCULAR 0.500 0.000 0 0 1
P2433 CIRCULAR 0.297 0.000 0 0 1
P2434 CIRCULAR 0.400 0.000 0 0 1
P2435 CIRCULAR 0.400 0.000 0 0 1
P2436 CIRCULAR 0.800 0.000 0 0 1
P2437 CIRCULAR 0.296 0.000 0 0 1
P2438 CIRCULAR 0.300 0.000 0 0 1
P2439 CIRCULAR 0.400 0.000 0 0 1
P2440 CIRCULAR 0.500 0.000 0 0 1
P2441 CIRCULAR 0.300 0.000 0 0 1
P2442 CIRCULAR 0.700 0.000 0 0 1
P2443 CIRCULAR 0.300 0.000 0 0 1
P2444 CIRCULAR 0.800 0.000 0 0 1
P2445 CIRCULAR 0.600 0.000 0 0 1
P2446 CIRCULAR 0.375 0.000 0 0 1
P2447 EGG 0.860 0.000 0 0 1
P2448 CIRCULAR 0.234 0.000 0 0 1
P2449 CIRCULAR 0.500 0.000 0 0 1
P2450 CIRCULAR 0.470 0.000 0 0 1
P2451 CIRCULAR 0.300 0.000 0 0 1
P2452 CIRCULAR 0.296 0.000 0 0 1
P2453 CIRCULAR 0.375 0.000 0 0 1
P2454 CIRCULAR 0.470 0.000 0 0 1
P2455 CIRCULAR 0.300 0.000 0 0 1
P2456 CIRCULAR 0.500 0.000 0 0 1
P2457 CIRCULAR 0.296 0.000 0 0 1
P2458 CIRCULAR 0.700 0.000 0 0 1
P2459 CIRCULAR 0.470 0.000 0 0 1
P2460 CIRCULAR 0.600 0.000 0 0 1
P2461 CIRCULAR 0.500 0.000 0 0 1
P2462 CIRCULAR 0.296 0.000 0 0 1
P2463 CIRCULAR 0.296 0.000 0 0 1
P2464 CIRCULAR 0.500 0.000 0 0 1
P2465 CIRCULAR 0.200 0.000 0 0 1
P2466 CIRCULAR 0.400 0.000 0 0 1
P2467 CIRCULAR 0.296 0.000 0 0 1
P2468 CIRCULAR 0.375 0.000 0 0 1
P2469 CIRCULAR 0.250 0.000 0 0 1
P2470 CIRCULAR 0.188 0.000 0 0 1
P2471 CIRCULAR 0.296 0.000 0 0 1
P2472 CIRCULAR 0.600 0.000 0 0 1
P2473 CIRCULAR 0.375 0.000 0 0 1
P2474 CIRCULAR 0.376 0.000 0 0 1
P2475 CIRCULAR 0.400 0.000 0 0 1
P2476 CIRCULAR 0.188 0.000 0 0 1
P2477 CIRCULAR 0.376 0.000 0 0 1
P2478 CIRCULAR 0.188 0.000 0 0 1
P2479 CIRCULAR 0.200 0.000 0 0 1
P2480 CIRCULAR 0.300 0.000 0 0 1
P2481 CIRCULAR 0.297 0.000 0 0 1
P2482 CIRCULAR 0.296 0.000 0 0 1
P2483 CIRCULAR 0.600 0.000 0 0 1
P2484 CIRCULAR 0.296 0.000 0 0 1
P2485 CIRCULAR 0.400 0.000 0 0 1
P2486 CIRCULAR 0.400 0.000 0 0 1
P2487 CIRCULAR 0.250 0.000 0 0 1
P2488 CIRCULAR 0.296 0.000 0 0 1
P2489 CIRCULAR 0.188 0.000 0 0 1
P2490 CIRCULAR 0.297 0.000 0 0 1
P2491 CIRCULAR 0.188 0.000 0 0 1
P2492 CIRCULAR 0.297 0.000 0 0 1
P2493 CIRCULAR 0.296 0.000 0 0 1
P2494 CIRCULAR 0.400 0.000 0 0 1
P2495 CIRCULAR 0.296 0.000 0 0 1
P2496 CIRCULAR 0.400 0.000 0 0 1
P2497 CIRCULAR 0.300 0.000 0 0 1
P2498 CIRCULAR 0.400 0.000 0 0 1
P2499 CIRCULAR 0.296 0.000 0 0 1
P2500 CIRCULAR 0.470 0.000 0 0 1
P2501 CIRCULAR 0.400 0.000 0 0 1
P2502 CIRCULAR 0.400 0.000 0 0 1
P2503 CIRCULAR 0.700 0.000 0 0 1
P2504 CIRCULAR 0.188 0.000 0 0 1
P2505 CIRCULAR 0.400 0.000 0 0 1
P2506 CIRCULAR 0.500 0.000 0 0 1
P2507 CIRCULAR 0.375 0.000 0 0 1
P2508 CIRCULAR 0.296 0.000 0 0 1
P2509 CIRCULAR 0.500 0.000 0 0 1
P2510 CIRCULAR 0.400 0.000 0 0 1
P2511 CIRCULAR 0.500 0.000 0 0 1
P2512 CIRCULAR 0.500 0.000 0 0 1
P2513 CIRCULAR 0.300 0.000 0 0 1
P2514 CIRCULAR 0.235 0.000 0 0 1
P2515 CIRCULAR 0.188 0.000 0 0 1
P2516 CIRCULAR 0.300 0.000 0 0 1
P2517 CIRCULAR 0.376 0.000 0 0 1
P2518 EGG 0.710 0.000 0 0 1
P2519 CIRCULAR 0.150 0.000 0 0 1
P2520 CIRCULAR 0.297 0.000 0 0 1
P2521 CIRCULAR 0.375 0.000 0 0 1
P2522 CIRCULAR 0.600 0.000 0 0 1
P2523 CIRCULAR 0.188 0.000 0 0 1
P2524 CIRCULAR 0.470 0.000 0 0 1
P2525 CIRCULAR 0.500 0.000 0 0 1
P2526 CIRCULAR 0.297 0.000 0 0 1
P2527 CIRCULAR 0.300 0.000 0 0 1
P2528 CIRCULAR 0.250 0.000 0 0 1
P2529 CIRCULAR 0.400 0.000 0 0 1
P2530 CIRCULAR 0.296 0.000 0 0 1
P2531 CIRCULAR 0.500 0.000 0 0 1
P2532 CIRCULAR 0.400 0.000 0 0 1
P2533 CIRCULAR 0.188 0.000 0 0 1
P2534 CIRCULAR 0.297 0.000 0 0 1
P2535 CIRCULAR 0.188 0.000 0 0 1
P2536 CIRCULAR 0.600 0.000 0 0 1
P2537 CIRCULAR 0.296 0.000 0 0 1
P2538 CIRCULAR 0.500 0.000 0 0 1
P2539 CIRCULAR 0.800 0.000 0 0 1
P2540 CIRCULAR 0.400 0.000 0 0 1
P2541 CIRCULAR 0.297 0.000 0 0 1
P2542 CIRCULAR 0.235 0.000 0 0 1
P2543 CIRCULAR 0.297 0.000 0 0 1
P2544 RECT_CLOSED 0.220 0.220 0 0 1
P2545 CIRCULAR 0.296 0.000 0 0 1
P2546 CIRCULAR 0.296 0.000 0 0 1
P2547 CIRCULAR 0.188 0.000 0 0 1
P2548 CIRCULAR 0.375 0.000 0 0 1
P2549 CIRCULAR 0.375 0.000 0 0 1
P2550 CIRCULAR 0.296 0.000 0 0 1
P2551 CIRCULAR 0.400 0.000 0 0 1
P2552 CIRCULAR 0.296 0.000 0 0 1
P2553 CIRCULAR 0.296 0.000 0 0 1
P2554 CIRCULAR 0.375 0.000 0 0 1
P2555 CIRCULAR 0.600 0.000 0 0 1
P2556 CIRCULAR 0.375 0.000 0 0 1
P2557 CIRCULAR 0.297 0.000 0 0 1
P2558 CIRCULAR 0.500 0.000 0 0 1
P2559 CIRCULAR 0.500 0.000 0 0 1
P2560 CIRCULAR 0.150 0.000 0 0 1
P2561 CIRCULAR 0.400 0.000 0 0 1
P2562 CIRCULAR 0.297 0.000 0 0 1
P2563 CIRCULAR 0.470 0.000 0 0 1
P2564 CIRCULAR 0.296 0.000 0 0 1
P2565 CIRCULAR 0.297 0.000 0 0 1
P2566 CIRCULAR 0.400 0.000 0 0 1
P2567 CIRCULAR 0.296 0.000 0 0 1
P2568 CIRCULAR 0.600 0.000 0 0 1
P2569 CIRCULAR 0.470 0.000 0 0 1
P2570 CIRCULAR 0.250 0.000 0 0 1
P2571 CIRCULAR 0.700 0.000 0 0 1
P2572 CIRCULAR 0.400 0.000 0 0 1
P2573 CIRCULAR 0.762 0.000 0 0 1
P2574 EGG 0.700 0.000 0 0 1
P2575 CIRCULAR 0.297 0.000 0 0 1
P2576 CIRCULAR 0.600 0.000 0 0 1
P2577 CIRCULAR 0.297 0.000 0 0 1
P2578 EGG 0.596 0.000 0 0 1
P2579 CIRCULAR 0.500 0.000 0 0 1
P2580 CIRCULAR 0.297 0.000 0 0 1
P2581 CIRCULAR 0.375 0.000 0 0 1
P2582 CIRCULAR 0.300 0.000 0 0 1
P2583 CIRCULAR 0.400 0.000 0 0 1
P2584 CIRCULAR 0.376 0.000 0 0 1
P2585 CIRCULAR 0.400 0.000 0 0 1
P2586 CIRCULAR 0.297 0.000 0 0 1
P2587 CIRCULAR 0.500 0.000 0 0 1
P2588 CIRCULAR 0.500 0.000 0 0 1
P2589 CIRCULAR 0.466 0.000 0 0 1
P2590 CIRCULAR 0.300 0.000 0 0 1
P2591 CIRCULAR 0.466 0.000 0 0 1
P2592 CIRCULAR 0.480 0.000 0 0 1
P2593 CIRCULAR 0.500 0.000 0 0 1
P2594 CIRCULAR 0.450 0.000 0 0 1
P2595 CIRCULAR 0.600 0.000 0 0 1
P2596 CIRCULAR 0.380 0.000 0 0 1
P2597 CIRCULAR 0.600 0.000 0 0 1
P2598 CIRCULAR 0.400 0.000 0 0 1
P2599 CIRCULAR 0.500 0.000 0 0 1
P2600 CIRCULAR 0.600 0.000 0 0 1
P2601 CIRCULAR 0.235 0.000 0 0 1
P2602 CIRCULAR 0.296 0.000 0 0 1
P2603 CIRCULAR 0.500 0.000 0 0 1
P2604 CIRCULAR 0.500 0.000 0 0 1
P2605 CIRCULAR 0.300 0.000 0 0 1
P2606 CIRCULAR 0.376 0.000 0 0 1
P2607 CIRCULAR 0.296 0.000 0 0 1
P2608 CIRCULAR 0.375 0.000 0 0 1
P2609 CIRCULAR 0.117 0.000 0 0 1
P2610 CIRCULAR 0.235 0.000 0 0 1
P2611 CIRCULAR 0.296 0.000 0 0 1
P2612 CIRCULAR 0.300 0.000 0 0 1
P2613 CIRCULAR 0.800 0.000 0 0 1
P2614 CIRCULAR 0.466 0.000 0 0 1
P2615 RECT_CLOSED 0.220 0.220 0 0 1
P2616 CIRCULAR 0.297 0.000 0 0 1
P2617 CIRCULAR 0.400 0.000 0 0 1
P2618 CIRCULAR 0.500 0.000 0 0 1
P2619 CIRCULAR 0.188 0.000 0 0 1
P2620 CIRCULAR 0.150 0.000 0 0 1
P2621 CIRCULAR 0.500 0.000 0 0 1
P2622 CIRCULAR 0.296 0.000 0 0 1
P2623 CIRCULAR 0.700 0.000 0 0 1
P2624 CIRCULAR 0.800 0.000 0 0 1
P2625 CIRCULAR 0.500 0.000 0 0 1
P2626 CIRCULAR 0.297 0.000 0 0 1
P2627 CIRCULAR 0.235 0.000 0 0 1
P2628 CIRCULAR 0.150 0.000 0 0 1
P2629 CIRCULAR 0.300 0.000 0 0 1
P2630 CIRCULAR 0.375 0.000 0 0 1
P2631 CIRCULAR 0.234 0.000 0 0 1
P2632 CIRCULAR 0.375 0.000 0 0 1
P2633 CIRCULAR 0.600 0.000 0 0 1
P2634 CIRCULAR 0.375 0.000 0 0 1
P2635 CIRCULAR 0.600 0.000 0 0 1
P2636 CIRCULAR 0.300 0.000 0 0 1
P2637 CIRCULAR 0.375 0.000 0 0 1
P2638 CIRCULAR 0.297 0.000 0 0 1
P2639 CIRCULAR 0.297 0.000 0 0 1
P2640 CIRCULAR 0.700 0.000 0 0 1
P2641 CIRCULAR 0.500 0.000 0 0 1
P2642 CIRCULAR 0.297 0.000 0 0 1
P2643 CIRCULAR 0.376 0.000 0 0 1
P2644 CIRCULAR 1.000 0.000 0 0 1
P2645 CIRCULAR 0.250 0.000 0 0 1
P2646 CIRCULAR 0.188 0.000 0 0 1
P2647 CIRCULAR 0.250 0.000 0 0 1
P2648 RECT_CLOSED 1.500 0.960 0 0 1
P2649 CIRCULAR 0.600 0.000 0 0 1
P2650 CIRCULAR 0.188 0.000 0 0 1
P2651 CIRCULAR 0.400 0.000 0 0 1
P2652 CIRCULAR 0.297 0.000 0 0 1
P2653 CIRCULAR 0.235 0.000 0 0 1
P2654 CIRCULAR 0.296 0.000 0 0 1
P2655 CIRCULAR 0.375 0.000 0 0 1
P2656 CIRCULAR 0.300 0.000 0 0 1
P2657 CIRCULAR 0.500 0.000 0 0 1
P2658 CIRCULAR 0.400 0.000 0 0 1
P2659 CIRCULAR 0.400 0.000 0 0 1
P2660 CIRCULAR 0.593 0.000 0 0 1
P2661 CIRCULAR 0.296 0.000 0 0 1
P2662 CIRCULAR 0.400 0.000 0 0 1
P2663 CIRCULAR 0.400 0.000 0 0 1
P2664 CIRCULAR 0.297 0.000 0 0 1
P2665 CIRCULAR 0.296 0.000 0 0 1
P2666 CIRCULAR 0.400 0.000 0 0 1
P2667 CIRCULAR 0.300 0.000 0 0 1
P2668 EGG 0.700 0.000 0 0 1
P2669 CIRCULAR 0.400 0.000 0 0 1
P2670 CIRCULAR 0.500 0.000 0 0 1
P2671 CIRCULAR 0.296 0.000 0 0 1
P2672 EGG 0.700 0.000 0 0 1
P2673 CIRCULAR 0.188 0.000 0 0 1
P2674 CIRCULAR 0.296 0.000 0 0 1
P2675 CIRCULAR 0.296 0.000 0 0 1
P2676 CIRCULAR 0.300 0.000 0 0 1
P2677 CIRCULAR 0.234 0.000 0 0 1
P2678 CIRCULAR 0.295 0.000 0 0 1
P2679 CIRCULAR 0.188 0.000 0 0 1
P2680 CIRCULAR 0.400 0.000 0 0 1
P2681 CIRCULAR 0.234 0.000 0 0 1
P2682 CIRCULAR 0.296 0.000 0 0 1
P2683 CIRCULAR 0.300 0.000 0 0 1
P2684 CIRCULAR 0.500 0.000 0 0 1
P2685 CIRCULAR 0.296 0.000 0 0 1
P2686 CIRCULAR 0.376 0.000 0 0 1
P2687 CIRCULAR 0.375 0.000 0 0 1
P2688 CIRCULAR 0.700 0.000 0 0 1
P2689 CIRCULAR 0.400 0.000 0 0 1
P2690 CIRCULAR 0.296 0.000 0 0 1
P2691 CIRCULAR 0.400 0.000 0 0 1
P2692 CIRCULAR 0.297 0.000 0 0 1
P2693 CIRCULAR 0.300 0.000 0 0 1
P2694 CIRCULAR 0.297 0.000 0 0 1
P2695 CIRCULAR 0.400 0.000 0 0 1
P2696 CIRCULAR 0.500 0.000 0 0 1
P2697 CIRCULAR 0.300 0.000 0 0 1
P2698 CIRCULAR 0.296 0.000 0 0 1
P2699 CIRCULAR 0.250 0.000 0 0 1
P2700 CIRCULAR 0.600 0.000 0 0 1
P2701 CIRCULAR 0.296 0.000 0 0 1
P2702 CIRCULAR 0.600 0.000 0 0 1
P2703 CIRCULAR 0.700 0.000 0 0 1
P2704 CIRCULAR 0.300 0.000 0 0 1
P2705 CIRCULAR 0.300 0.000 0 0 1
P2706 CIRCULAR 0.375 0.000 0 0 1
P2707 CIRCULAR 0.400 0.000 0 0 1
P2708 CIRCULAR 0.375 0.000 0 0 1
P2709 CIRCULAR 0.400 0.000 0 0 1
P2710 CIRCULAR 0.296 0.000 0 0 1
P2711 CIRCULAR 0.296 0.000 0 0 1
P2712 CIRCULAR 0.296 0.000 0 0 1
P2713 CIRCULAR 0.300 0.000 0 0 1
P2714 CIRCULAR 0.200 0.000 0 0 1
P2715 CIRCULAR 0.580 0.000 0 0 1
P2716 CIRCULAR 0.375 0.000 0 0 1
P2717 CIRCULAR 0.300 0.000 0 0 1
P2718 CIRCULAR 0.470 0.000 0 0 1
P2719 CIRCULAR 0.376 0.000 0 0 1
P2720 CIRCULAR 0.500 0.000 0 0 1
P2721 CIRCULAR 0.375 0.000 0 0 1
P2722 CIRCULAR 0.500 0.000 0 0 1
P2723 CIRCULAR 0.500 0.000 0 0 1
P2724 CIRCULAR 0.296 0.000 0 0 1
P2725 CIRCULAR 0.300 0.000 0 0 1
P2726 CIRCULAR 0.500 0.000 0 0 1
P2727 CIRCULAR 0.235 0.000 0 0 1
P2728 CIRCULAR 0.296 0.000 0 0 1
P2729 CIRCULAR 0.235 0.000 0 0 1
P2730 CIRCULAR 0.234 0.000 0 0 1
P2731 CIRCULAR 0.300 0.000 0 0 1
P2732 CIRCULAR 0.500 0.000 0 0 1
P2733 CIRCULAR 0.300 0.000 0 0 1
P2734 CIRCULAR 0.296 0.000 0 0 1
P2735 CIRCULAR 0.480 0.000 0 0 1
P2736 CIRCULAR 0.600 0.000 0 0 1
P2737 CIRCULAR 0.296 0.000 0 0 1
P2738 CIRCULAR 0.500 0.000 0 0 1
P2739 CIRCULAR 0.500 0.000 0 0 1
P2740 CIRCULAR 0.296 0.000 0 0 1
P2741 CIRCULAR 0.500 0.000 0 0 1
P2742 CIRCULAR 0.600 0.000 0 0 1
P2743 CIRCULAR 0.400 0.000 0 0 1
P2744 CIRCULAR 0.188 0.000 0 0 1
P2745 RECT_CLOSED 0.220 0.220 0 0 1
P2746 CIRCULAR 0.400 0.000 0 0 1
P2747 CIRCULAR 0.600 0.000 0 0 1
P2748 CIRCULAR 0.297 0.000 0 0 1
P2749 CIRCULAR 0.375 0.000 0 0 1
P2750 CIRCULAR 0.250 0.000 0 0 1
P2751 CIRCULAR 0.593 0.000 0 0 1
P2752 CIRCULAR 0.188 0.000 0 0 1
P2753 CIRCULAR 0.380 0.000 0 0 1
P2754 CIRCULAR 0.466 0.000 0 0 1
P2755 CIRCULAR 0.296 0.000 0 0 1
P2756 CIRCULAR 0.296 0.000 0 0 1
P2757 CIRCULAR 0.400 0.000 0 0 1
P2758 CIRCULAR 0.400 0.000 0 0 1
P2759 CIRCULAR 0.300 0.000 0 0 1
P2760 EGG 0.700 0.000 0 0 1
P2761 CIRCULAR 0.800 0.000 0 0 1
P2762 CIRCULAR 0.375 0.000 0 0 1
P2763 CIRCULAR 0.400 0.000 0 0 1
P2764 CIRCULAR 0.300 0.000 0 0 1
P2765 CIRCULAR 0.600 0.000 0 0 1
P2766 CIRCULAR 0.296 0.000 0 0 1
P2767 CIRCULAR 0.500 0.000 0 0 1
P2768 CIRCULAR 0.400 0.000 0 0 1
P2769 CIRCULAR 0.400 0.000 0 0 1
P2770 CIRCULAR 0.600 0.000 0 0 1
P2771 CIRCULAR 1.000 0.000 0 0 1
P2772 CIRCULAR 0.297 0.000 0 0 1
P2773 CIRCULAR 0.297 0.000 0 0 1
P2774 CIRCULAR 0.400 0.000 0 0 1
P2775 CIRCULAR 0.300 0.000 0 0 1
P2776 CIRCULAR 0.300 0.000 0 0 1
P2777 CIRCULAR 0.600 0.000 0 0 1
P2778 CIRCULAR 0.297 0.000 0 0 1
P2779 CIRCULAR 0.600 0.000 0 0 1
P2780 CIRCULAR 0.400 0.000 0 0 1
P2781 EGG 0.860 0.000 0 0 1
P2782 CIRCULAR 0.400 0.000 0 0 1
P2783 RECT_CLOSED 0.220 0.220 0 0 1
P2784 CIRCULAR 0.297 0.000 0 0 1
P2785 CIRCULAR 0.296 0.000 0 0 1
P2786 CIRCULAR 0.188 0.000 0 0 1
P2787 CIRCULAR 0.500 0.000 0 0 1
P2788 CIRCULAR 0.400 0.000 0 0 1
P2789 CIRCULAR 0.593 0.000 0 0 1
P2790 CIRCULAR 0.400 0.000 0 0 1
P2791 CIRCULAR 0.235 0.000 0 0 1
P2792 CIRCULAR 0.400 0.000 0 0 1
P2793 CIRCULAR 0.500 0.000 0 0 1
P2794 CIRCULAR 0.296 0.000 0 0 1
P2795 CIRCULAR 0.375 0.000 0 0 1
P2796 CIRCULAR 0.297 0.000 0 0 1
P2797 CIRCULAR 0.600 0.000 0 0 1
P2798 CIRCULAR 0.297 0.000 0 0 1
P2799 CIRCULAR 0.296 0.000 0 0 1
P2800 CIRCULAR 0.296 0.000 0 0 1
P2801 CIRCULAR 0.600 0.000 0 0 1
P2802 EGG 0.860 0.000 0 0 1
P2803 CIRCULAR 0.234 0.000 0 0 1
P2804 CIRCULAR 0.376 0.000 0 0 1
P2805 CIRCULAR 1.000 0.000 0 0 1
P2806 CIRCULAR 0.150 0.000 0 0 1
P2807 CIRCULAR 0.297 0.000 0 0 1
P2808 CIRCULAR 0.400 0.000 0 0 1
P2809 CIRCULAR 0.296 0.000 0 0 1
P2810 CIRCULAR 0.400 0.000 0 0 1
P2811 CIRCULAR 0.297 0.000 0 0 1
P2812 EGG 0.710 0.000 0 0 1
P2813 CIRCULAR 0.200 0.000 0 0 1
P2814 CIRCULAR 0.400 0.000 0 0 1
P2815 CIRCULAR 0.375 0.000 0 0 1
P2816 CIRCULAR 0.297 0.000 0 0 1
P2817 CIRCULAR 0.400 0.000 0 0 1
P2818 CIRCULAR 0.297 0.000 0 0 1
P2819 CIRCULAR 0.400 0.000 0 0 1
P2820 CIRCULAR 0.188 0.000 0 0 1
P2821 CIRCULAR 0.400 0.000 0 0 1
P2822 CIRCULAR 0.400 0.000 0 0 1
P2823 CIRCULAR 0.296 0.000 0 0 1
P2824 CIRCULAR 0.296 0.000 0 0 1
P2825 CIRCULAR 0.250 0.000 0 0 1
P2826 CIRCULAR 0.297 0.000 0 0 1
P2827 CIRCULAR 0.234 0.000 0 0 1
P2828 CIRCULAR 0.500 0.000 0 0 1
P2829 CIRCULAR 0.375 0.000 0 0 1
P2830 CIRCULAR 0.296 0.000 0 0 1
P2831 CIRCULAR 0.400 0.000 0 0 1
P2832 CIRCULAR 0.188 0.000 0 0 1
P2833 CIRCULAR 0.300 0.000 0 0 1
P2834 CIRCULAR 0.400 0.000 0 0 1
P2835 CIRCULAR 0.500 0.000 0 0 1
P2836 CIRCULAR 0.600 0.000 0 0 1
P2837 CIRCULAR 0.400 0.000 0 0 1
P2838 CIRCULAR 0.296 0.000 0 0 1
P2839 CIRCULAR 0.234 0.000 0 0 1
P2840 CIRCULAR 0.188 0.000 0 0 1
P2841 CIRCULAR 0.296 0.000 0 0 1
P2842 CIRCULAR 0.600 0.000 0 0 1
P2843 CIRCULAR 0.297 0.000 0 0 1
P2844 CIRCULAR 0.500 0.000 0 0 1
P2845 CIRCULAR 0.297 0.000 0 0 1
P2846 CIRCULAR 0.500 0.000 0 0 1
P2847 CIRCULAR 0.296 0.000 0 0 1
P2848 CIRCULAR 0.500 0.000 0 0 1
P2849 CIRCULAR 0.375 0.000 0 0 1
P2850 CIRCULAR 0.400 0.000 0 0 1
P2851 CIRCULAR 0.297 0.000 0 0 1
P2852 CIRCULAR 0.297 0.000 0 0 1
P2853 CIRCULAR 0.400 0.000 0 0 1
P2854 CIRCULAR 0.600 0.000 0 0 1
P2855 CIRCULAR 0.400 0.000 0 0 1
P2856 CIRCULAR 0.296 0.000 0 0 1
P2857 CIRCULAR 0.480 0.000 0 0 1
P2858 CIRCULAR 0.300 0.000 0 0 1
P2859 CIRCULAR 0.500 0.000 0 0 1
P2860 CIRCULAR 0.500 0.000 0 0 1
P2861 CIRCULAR 0.300 0.000 0 0 1
P2862 CIRCULAR 0.470 0.000 0 0 1
P2863 CIRCULAR 0.188 0.000 0 0 1
P2864 CIRCULAR 0.480 0.000 0 0 1
P2865 CIRCULAR 0.300 0.000 0 0 1
P2866 CIRCULAR 0.297 0.000 0 0 1
P2867 CIRCULAR 0.375 0.000 0 0 1
P2868 CIRCULAR 0.600 0.000 0 0 1
P2869 CIRCULAR 0.250 0.000 0 0 1
P2870 CIRCULAR 0.297 0.000 0 0 1
P2871 CIRCULAR 0.300 0.000 0 0 1
P2872 CIRCULAR 0.500 0.000 0 0 1
P2873 CIRCULAR 0.600 0.000 0 0 1
P2874 CIRCULAR 0.400 0.000 0 0 1
P2875 CIRCULAR 0.600 0.000 0 0 1
P2876 CIRCULAR 0.480 0.000 0 0 1
P2877 CIRCULAR 0.400 0.000 0 0 1
P2878 CIRCULAR 0.400 0.000 0 0 1
P2879 CIRCULAR 0.600 0.000 0 0 1
P2880 CIRCULAR 0.296 0.000 0 0 1
P2881 CIRCULAR 0.300 0.000 0 0 1
P2882 CIRCULAR 0.600 0.000 0 0 1
P2883 CIRCULAR 0.700 0.000 0 0 1
P2884 CIRCULAR 0.500 0.000 0 0 1
P2885 CIRCULAR 0.500 0.000 0 0 1
P2886 EGG 0.720 0.000 0 0 1
P2887 CIRCULAR 0.391 0.000 0 0 1
P2888 CIRCULAR 0.375 0.000 0 0 1
P2889 CIRCULAR 0.500 0.000 0 0 1
P2890 CIRCULAR 0.297 0.000 0 0 1
P2891 CIRCULAR 0.500 0.000 0 0 1
P2892 CIRCULAR 0.500 0.000 0 0 1
P2893 CIRCULAR 0.296 0.000 0 0 1
P2894 CIRCULAR 0.300 0.000 0 0 1
P2895 CIRCULAR 0.300 0.000 0 0 1
P2896 CIRCULAR 0.376 0.000 0 0 1
P2897 CIRCULAR 0.376 0.000 0 0 1
P2898 CIRCULAR 0.500 0.000 0 0 1
P2899 CIRCULAR 0.235 0.000 0 0 1
P2900 CIRCULAR 0.235 0.000 0 0 1
P2901 CIRCULAR 0.500 0.000 0 0 1
P2902 CIRCULAR 0.600 0.000 0 0 1
P2903 CIRCULAR 0.297 0.000 0 0 1
P2904 CIRCULAR 0.400 0.000 0 0 1
P2905 CIRCULAR 0.375 0.000 0 0 1
P2906 CIRCULAR 0.600 0.000 0 0 1
P2907 CIRCULAR 0.300 0.000 0 0 1
P2908 CIRCULAR 0.297 0.000 0 0 1
P2909 CIRCULAR 0.376 0.000 0 0 1
P2910 CIRCULAR 0.400 0.000 0 0 1
P2911 CIRCULAR 0.297 0.000 0 0 1
P2912 CIRCULAR 0.400 0.000 0 0 1
P2913 CIRCULAR 0.400 0.000 0 0 1
P2914 CIRCULAR 0.296 0.000 0 0 1
P2915 CIRCULAR 0.500 0.000 0 0 1
P2916 CIRCULAR 0.297 0.000 0 0 1
P2917 CIRCULAR 0.590 0.000 0 0 1
P2918 CIRCULAR 0.500 0.000 0 0 1
P2919 CIRCULAR 0.234 0.000 0 0 1
P2920 CIRCULAR 0.600 0.000 0 0 1
P2921 CIRCULAR 0.300 0.000 0 0 1
P2922 CIRCULAR 0.188 0.000 0 0 1
P2923 CIRCULAR 0.600 0.000 0 0 1
P2924 CIRCULAR 0.400 0.000 0 0 1
P2925 CIRCULAR 0.300 0.000 0 0 1
P2926 CIRCULAR 0.188 0.000 0 0 1
P2927 CIRCULAR 0.470 0.000 0 0 1
P2928 CIRCULAR 0.500 0.000 0 0 1
P2929 CIRCULAR 0.235 0.000 0 0 1
P2930 CIRCULAR 0.297 0.000 0 0 1
P2931 CIRCULAR 0.400 0.000 0 0 1
P2932 CIRCULAR 0.300 0.000 0 0 1
P2933 CIRCULAR 0.188 0.000 0 0 1
P2934 CIRCULAR 0.500 0.000 0 0 1
P2935 CIRCULAR 0.400 0.000 0 0 1
P2936 CIRCULAR 0.235 0.000 0 0 1
P2937 CIRCULAR 0.500 0.000 0 0 1
P2938 CIRCULAR 0.593 0.000 0 0 1
P2939 RECT_CLOSED 0.700 0.500 0 0 1
P2940 CIRCULAR 0.400 0.000 0 0 1
P2941 CIRCULAR 0.297 0.000 0 0 1
P2942 CIRCULAR 0.297 0.000 0 0 1
P2943 CIRCULAR 0.300 0.000 0 0 1
P2944 CIRCULAR 0.500 0.000 0 0 1
P2945 CIRCULAR 0.500 0.000 0 0 1
P2946 CIRCULAR 0.400 0.000 0 0 1
P2947 CIRCULAR 0.400 0.000 0 0 1
P2948 CIRCULAR 0.200 0.000 0 0 1
P2949 CIRCULAR 0.296 0.000 0 0 1
P2950 CIRCULAR 0.300 0.000 0 0 1
P2951 CIRCULAR 0.188 0.000 0 0 1
P2952 CIRCULAR 0.300 0.000 0 0 1
P2953 CIRCULAR 0.296 0.000 0 0 1
P2954 CIRCULAR 0.500 0.000 0 0 1
P2955 CIRCULAR 0.480 0.000 0 0 1
P2956 CIRCULAR 0.297 0.000 0 0 1
P2957 CIRCULAR 0.375 0.000 0 0 1
P2958 CIRCULAR 0.700 0.000 0 0 1
P2959 CIRCULAR 0.400 0.000 0 0 1
P2960 CIRCULAR 0.500 0.000 0 0 1
P2961 CIRCULAR 0.188 0.000 0 0 1
P2962 CIRCULAR 0.500 0.000 0 0 1
P2963 CIRCULAR 0.400 0.000 0 0 1
P2964 CIRCULAR 0.296 0.000 0 0 1
P2965 CIRCULAR 0.296 0.000 0 0 1
P2966 CIRCULAR 0.296 0.000 0 0 1
P2967 CIRCULAR 0.296 0.000 0 0 1
P2968 CIRCULAR 0.200 0.000 0 0 1
P2969 CIRCULAR 0.400 0.000 0 0 1
P2970 CIRCULAR 0.300 0.000 0 0 1
P2971 CIRCULAR 0.700 0.000 0 0 1
P2972 CIRCULAR 0.300 0.000 0 0 1
P2973 CIRCULAR 0.500 0.000 0 0 1
P2974 CIRCULAR 0.188 0.000 0 0 1
P2975 CIRCULAR 0.400 0.000 0 0 1
P2976 CIRCULAR 0.470 0.000 0 0 1
P2977 CIRCULAR 0.800 0.000 0 0 1
P2978 CIRCULAR 0.470 0.000 0 0 1
P2979 EGG 0.710 0.000 0 0 1
P2980 CIRCULAR 0.500 0.000 0 0 1
P2981 CIRCULAR 0.296 0.000 0 0 1
P2982 CIRCULAR 0.600 0.000 0 0 1
P2983 CIRCULAR 0.235 0.000 0 0 1
P2984 CIRCULAR 0.500 0.000 0 0 1
P2985 CIRCULAR 0.188 0.000 0 0 1
P2986 CIRCULAR 0.600 0.000 0 0 1
P2987 CIRCULAR 0.297 0.000 0 0 1
P2988 CIRCULAR 0.954 0.000 0 0 1
P2989 CIRCULAR 0.235 0.000 0 0 1
P2990 CIRCULAR 0.235 0.000 0 0 1
P2991 CIRCULAR 0.200 0.000 0 0 1
P2992 CIRCULAR 0.296 0.000 0 0 1
P2993 CIRCULAR 0.250 0.000 0 0 1
P2994 CIRCULAR 0.235 0.000 0 0 1
P2995 CIRCULAR 0.400 0.000 0 0 1
P2996 CIRCULAR 0.300 0.000 0 0 1
P2997 CIRCULAR 0.188 0.000 0 0 1
P2998 CIRCULAR 0.235 0.000 0 0 1
P2999 CIRCULAR 0.400 0.000 0 0 1
P3000 CIRCULAR 0.297 0.000 0 0 1
P3001 CIRCULAR 0.188 0.000 0 0 1
P3002 CIRCULAR 0.235 0.000 0 0 1
P3003 CIRCULAR 0.296 0.000 0 0 1
P3004 CIRCULAR 0.297 0.000 0 0 1
P3005 CIRCULAR 0.470 0.000 0 0 1
P3006 CIRCULAR 0.500 0.000 0 0 1
P3007 CIRCULAR 0.500 0.000 0 0 1
P3008 CIRCULAR 0.250 0.000 0 0 1
P3009 CIRCULAR 0.400 0.000 0 0 1
P3010 CIRCULAR 0.297 0.000 0 0 1
P3011 CIRCULAR 0.235 0.000 0 0 1
P3012 CIRCULAR 0.600 0.000 0 0 1
P3013 CIRCULAR 0.470 0.000 0 0 1
P3014 CIRCULAR 0.380 0.000 0 0 1
P3015 CIRCULAR 0.235 0.000 0 0 1
P3016 CIRCULAR 0.400 0.000 0 0 1
P3017 CIRCULAR 0.297 0.000 0 0 1
P3018 CIRCULAR 1.000 0.000 0 0 1
P3019 CIRCULAR 0.500 0.000 0 0 1
P3020 CIRCULAR 0.235 0.000 0 0 1
P3021 CIRCULAR 0.500 0.000 0 0 1
P3022 CIRCULAR 0.400 0.000 0 0 1
P3023 CIRCULAR 0.297 0.000 0 0 1
P3024 CIRCULAR 0.300 0.000 0 0 1
P3025 CIRCULAR 0.300 0.000 0 0 1
P3026 CIRCULAR 0.296 0.000 0 0 1
P3027 CIRCULAR 0.300 0.000 0 0 1
P3028 CIRCULAR 0.250 0.000 0 0 1
P3029 CIRCULAR 0.470 0.000 0 0 1
P3030 CIRCULAR 0.500 0.000 0 0 1
P3031 CIRCULAR 0.600 0.000 0 0 1
P3032 CIRCULAR 0.188 0.000 0 0 1
P3033 CIRCULAR 0.297 0.000 0 0 1
P3034 CIRCULAR 0.400 0.000 0 0 1
P3035 CIRCULAR 0.297 0.000 0 0 1
P3036 CIRCULAR 0.250 0.000 0 0 1
P3037 CIRCULAR 0.500 0.000 0 0 1
P3038 CIRCULAR 0.500 0.000 0 0 1
P3039 CIRCULAR 0.297 0.000 0 0 1
P3040 CIRCULAR 0.188 0.000 0 0 1
P3041 CIRCULAR 0.500 0.000 0 0 1
P3042 CIRCULAR 0.500 0.000 0 0 1
P3043 CIRCULAR 0.400 0.000 0 0 1
P3044 CIRCULAR 0.500 0.000 0 0 1
P3045 CIRCULAR 0.400 0.000 0 0 1
P3046 CIRCULAR 0.188 0.000 0 0 1
P3047 CIRCULAR 0.376 0.000 0 0 1
P3048 CIRCULAR 0.297 0.000 0 0 1
P3049 CIRCULAR 0.296 0.000 0 0 1
P3050 CIRCULAR 0.500 0.000 0 0 1
P3051 CIRCULAR 0.400 0.000 0 0 1
P3052 CIRCULAR 0.296 0.000 0 0 1
P3053 CIRCULAR 0.188 0.000 0 0 1
P3054 CIRCULAR 0.500 0.000 0 0 1
P3055 CIRCULAR 0.593 0.000 0 0 1
P3056 CIRCULAR 0.400 0.000 0 0 1
P3057 CIRCULAR 0.297 0.000 0 0 1
P3058 CIRCULAR 0.200 0.000 0 0 1
P3059 CIRCULAR 0.400 0.000 0 0 1
P3060 CIRCULAR 0.400 0.000 0 0 1
P3061 CIRCULAR 0.250 0.000 0 0 1
P3062 CIRCULAR 0.297 0.000 0 0 1
P3063 CIRCULAR 0.500 0.000 0 0 1
P3064 CIRCULAR 0.235 0.000 0 0 1
P3065 CIRCULAR 0.297 0.000 0 0 1
P3066 CIRCULAR 0.500 0.000 0 0 1
P3067 CIRCULAR 0.235 0.000 0 0 1
P3068 CIRCULAR 0.400 0.000 0 0 1
P3069 CIRCULAR 0.234 0.000 0 0 1
P3070 CIRCULAR 0.296 0.000 0 0 1
P3071 CIRCULAR 0.296 0.000 0 0 1
P3072 CIRCULAR 0.500 0.000 0 0 1
P3073 CIRCULAR 0.296 0.000 0 0 1
P3074 CIRCULAR 0.297 0.000 0 0 1
P3075 CIRCULAR 0.296 0.000 0 0 1
P3076 CIRCULAR 0.600 0.000 0 0 1
P3077 CIRCULAR 0.297 0.000 0 0 1
P3078 CIRCULAR 0.764 0.000 0 0 1
P3079 CIRCULAR 0.480 0.000 0 0 1
P3080 CIRCULAR 0.296 0.000 0 0 1
P3081 CIRCULAR 0.297 0.000 0 0 1
P3082 CIRCULAR 0.400 0.000 0 0 1
P3083 CIRCULAR 0.188 0.000 0 0 1
P3084 CIRCULAR 0.296 0.000 0 0 1
P3085 CIRCULAR 0.500 0.000 0 0 1
P3086 CIRCULAR 0.297 0.000 0 0 1
P3087 CIRCULAR 0.700 0.000 0 0 1
P3088 CIRCULAR 0.500 0.000 0 0 1
P3089 CIRCULAR 0.300 0.000 0 0 1
P3090 CIRCULAR 0.600 0.000 0 0 1
P3091 CIRCULAR 0.600 0.000 0 0 1
P3092 CIRCULAR 0.296 0.000 0 0 1
P3093 CIRCULAR 0.500 0.000 0 0 1
P3094 CIRCULAR 0.297 0.000 0 0 1
P3095 CIRCULAR 0.300 0.000 0 0 1
P3096 CIRCULAR 0.500 0.000 0 0 1
P3097 CIRCULAR 0.500 0.000 0 0 1
P3098 CIRCULAR 0.400 0.000 0 0 1
P3099 CIRCULAR 0.375 0.000 0 0 1
P3100 CIRCULAR 0.300 0.000 0 0 1
P3101 CIRCULAR 0.800 0.000 0 0 1
P3102 RECT_CLOSED 0.220 0.220 0 0 1
P3103 CIRCULAR 0.297 0.000 0 0 1
P3104 CIRCULAR 0.117 0.000 0 0 1
P3105 CIRCULAR 0.295 0.000 0 0 1
P3106 CIRCULAR 0.800 0.000 0 0 1
P3107 CIRCULAR 0.400 0.000 0 0 1
P3108 CIRCULAR 0.480 0.000 0 0 1
P3109 EGG 0.860 0.000 0 0 1
P3110 CIRCULAR 0.400 0.000 0 0 1
P3111 CIRCULAR 0.296 0.000 0 0 1
P3112 CIRCULAR 0.300 0.000 0 0 1
P3113 CIRCULAR 0.300 0.000 0 0 1
P3114 CIRCULAR 0.500 0.000 0 0 1
P3115 CIRCULAR 0.800 0.000 0 0 1
P3116 CIRCULAR 0.296 0.000 0 0 1
P3117 CIRCULAR 0.600 0.000 0 0 1
P3118 CIRCULAR 0.500 0.000 0 0 1
P3119 CIRCULAR 0.296 0.000 0 0 1
P3120 CIRCULAR 0.297 0.000 0 0 1
P3121 CIRCULAR 0.500 0.000 0 0 1
P3122 CIRCULAR 0.600 0.000 0 0 1
P3123 CIRCULAR 0.500 0.000 0 0 1
P3124 CIRCULAR 0.380 0.000 0 0 1
P3125 CIRCULAR 0.297 0.000 0 0 1
P3126 RECT_CLOSED 1.000 1.400 0 0 1
P3127 CIRCULAR 0.400 0.000 0 0 1
P3128 CIRCULAR 0.296 0.000 0 0 1
P3129 CIRCULAR 0.297 0.000 0 0 1
P3130 CIRCULAR 0.235 0.000 0 0 1
P3131 CIRCULAR 0.500 0.000 0 0 1
P3132 CIRCULAR 0.700 0.000 0 0 1
P3133 CIRCULAR 0.300 0.000 0 0 1
P3134 CIRCULAR 0.400 0.000 0 0 1
P3135 CIRCULAR 0.900 0.000 0 0 1
P3136 CIRCULAR 0.300 0.000 0 0 1
P3137 CIRCULAR 0.500 0.000 0 0 1
P3138 CIRCULAR 0.296 0.000 0 0 1
P3139 CIRCULAR 0.300 0.000 0 0 1
P3140 CIRCULAR 0.480 0.000 0 0 1
P3141 CIRCULAR 0.466 0.000 0 0 1
P3142 CIRCULAR 0.296 0.000 0 0 1
P3143 CIRCULAR 0.296 0.000 0 0 1
P3144 CIRCULAR 0.500 0.000 0 0 1
P3145 CIRCULAR 0.296 0.000 0 0 1
P3146 CIRCULAR 0.500 0.000 0 0 1
P3147 CIRCULAR 0.375 0.000 0 0 1
P3148 CIRCULAR 0.480 0.000 0 0 1
P3149 CIRCULAR 0.297 0.000 0 0 1
P3150 CIRCULAR 0.250 0.000 0 0 1
P3151 CIRCULAR 0.297 0.000 0 0 1
P3152 CIRCULAR 0.480 0.000 0 0 1
P3153 CIRCULAR 0.297 0.000 0 0 1
P3154 CIRCULAR 0.297 0.000 0 0 1
P3155 CIRCULAR 0.296 0.000 0 0 1
P3156 CIRCULAR 0.500 0.000 0 0 1
P3157 CIRCULAR 0.600 0.000 0 0 1
P3158 CIRCULAR 0.235 0.000 0 0 1
P3159 CIRCULAR 0.234 0.000 0 0 1
P3160 CIRCULAR 0.297 0.000 0 0 1
P3161 CIRCULAR 0.188 0.000 0 0 1
P3162 CIRCULAR 0.466 0.000 0 0 1
P3163 CIRCULAR 0.400 0.000 0 0 1
P3164 CIRCULAR 0.188 0.000 0 0 1
P3165 CIRCULAR 0.235 0.000 0 0 1
P3166 CIRCULAR 0.188 0.000 0 0 1
P3167 CIRCULAR 0.593 0.000 0 0 1
P3168 CIRCULAR 0.296 0.000 0 0 1
P3169 CIRCULAR 0.297 0.000 0 0 1
P3170 CIRCULAR 0.300 0.000 0 0 1
P3171 CIRCULAR 0.296 0.000 0 0 1
P3172 CIRCULAR 0.800 0.000 0 0 1
P3173 CIRCULAR 0.296 0.000 0 0 1
P3174 CIRCULAR 0.375 0.000 0 0 1
P3175 CIRCULAR 0.400 0.000 0 0 1
P3176 CIRCULAR 0.600 0.000 0 0 1
P3177 CIRCULAR 0.600 0.000 0 0 1
P3178 CIRCULAR 0.500 0.000 0 0 1
P3179 CIRCULAR 0.297 0.000 0 0 1
P3180 CIRCULAR 0.296 0.000 0 0 1
P3181 CIRCULAR 0.250 0.000 0 0 1
P3182 CIRCULAR 0.800 0.000 0 0 1
P3183 CIRCULAR 0.296 0.000 0 0 1
P3184 CIRCULAR 0.400 0.000 0 0 1
P3185 CIRCULAR 0.200 0.000 0 0 1
P3186 CIRCULAR 0.600 0.000 0 0 1
P3187 CIRCULAR 0.296 0.000 0 0 1
P3188 CIRCULAR 0.500 0.000 0 0 1
P3189 CIRCULAR 0.400 0.000 0 0 1
P3190 CIRCULAR 0.296 0.000 0 0 1
P3191 CIRCULAR 0.300 0.000 0 0 1
P3192 CIRCULAR 0.593 0.000 0 0 1
P3193 CIRCULAR 0.297 0.000 0 0 1
P3194 CIRCULAR 0.296 0.000 0 0 1
P3195 CIRCULAR 0.600 0.000 0 0 1
P3196 CIRCULAR 0.400 0.000 0 0 1
P3197 CIRCULAR 0.500 0.000 0 0 1
P3198 CIRCULAR 0.297 0.000 0 0 1
P3199 CIRCULAR 0.297 0.000 0 0 1
P3200 CIRCULAR 0.235 0.000 0 0 1
P3201 CIRCULAR 0.500 0.000 0 0 1
P3202 EGG 0.710 0.000 0 0 1
P3203 CIRCULAR 0.400 0.000 0 0 1
P3204 CIRCULAR 0.500 0.000 0 0 1
P3205 CIRCULAR 0.250 0.000 0 0 1
P3206 CIRCULAR 0.300 0.000 0 0 1
P3207 CIRCULAR 0.400 0.000 0 0 1
P3208 CIRCULAR 0.500 0.000 0 0 1
P3209 CIRCULAR 0.296 0.000 0 0 1
P3210 RECT_CLOSED 0.220 0.220 0 0 1
P3211 CIRCULAR 0.400 0.000 0 0 1
P3212 CIRCULAR 0.235 0.000 0 0 1
P3213 CIRCULAR 0.297 0.000 0 0 1
P3214 CIRCULAR 0.375 0.000 0 0 1
P3215 CIRCULAR 0.375 0.000 0 0 1
P3216 CIRCULAR 0.400 0.000 0 0 1
P3217 CIRCULAR 0.566 0.000 0 0 1
P3218 CIRCULAR 0.296 0.000 0 0 1
P3219 CIRCULAR 0.600 0.000 0 0 1
P3220 CIRCULAR 0.400 0.000 0 0 1
P3221 CIRCULAR 0.700 0.000 0 0 1
P3222 CIRCULAR 0.400 0.000 0 0 1
P3223 CIRCULAR 0.375 0.000 0 0 1
P3224 CIRCULAR 0.297 0.000 0 0 1
P3225 CIRCULAR 0.297 0.000 0 0 1
P3226 CIRCULAR 0.400 0.000 0 0 1
P3227 CIRCULAR 0.400 0.000 0 0 1
P3228 CIRCULAR 0.400 0.000 0 0 1
P3229 EGG 0.700 0.000 0 0 1
P3230 CIRCULAR 0.188 0.000 0 0 1
P3231 CIRCULAR 0.500 0.000 0 0 1
P3232 CIRCULAR 0.400 0.000 0 0 1
P3233 CIRCULAR 0.400 0.000 0 0 1
P3234 CIRCULAR 0.300 0.000 0 0 1
P3235 CIRCULAR 0.375 0.000 0 0 1
P3236 CIRCULAR 0.600 0.000 0 0 1
P3237 CIRCULAR 0.500 0.000 0 0 1
P3238 CIRCULAR 0.250 0.000 0 0 1
P3239 CIRCULAR 0.188 0.000 0 0 1
P3240 CIRCULAR 0.375 0.000 0 0 1
P3241 CIRCULAR 0.400 0.000 0 0 1
P3242 CIRCULAR 0.800 0.000 0 0 1
P3243 CIRCULAR 0.297 0.000 0 0 1
P3244 CIRCULAR 0.500 0.000 0 0 1
P3245 CIRCULAR 0.297 0.000 0 0 1
P3246 CIRCULAR 0.400 0.000 0 0 1
P3247 CIRCULAR 0.500 0.000 0 0 1
P3248 CIRCULAR 0.300 0.000 0 0 1
P3249 CIRCULAR 0.375 0.000 0 0 1
P3250 CIRCULAR 0.400 0.000 0 0 1
P3251 CIRCULAR 0.296 0.000 0 0 1
P3252 CIRCULAR 0.400 0.000 0 0 1
P3253 CIRCULAR 0.600 0.000 0 0 1
P3254 CIRCULAR 0.235 0.000 0 0 1
P3255 CIRCULAR 0.375 0.000 0 0 1
P3256 CIRCULAR 0.500 0.000 0 0 1
P3257 CIRCULAR 0.470 0.000 0 0 1
P3258 CIRCULAR 0.300 0.000 0 0 1
P3259 CIRCULAR 0.296 0.000 0 0 1
P3260 CIRCULAR 0.400 0.000 0 0 1
P3261 CIRCULAR 0.297 0.000 0 0 1
P3262 CIRCULAR 0.400 0.000 0 0 1
P3263 CIRCULAR 0.297 0.000 0 0 1
P3264 CIRCULAR 0.300 0.000 0 0 1
P3265 CIRCULAR 0.500 0.000 0 0 1
P3266 CIRCULAR 0.297 0.000 0 0 1
P3267 CIRCULAR 0.500 0.000 0 0 1
P3268 CIRCULAR 0.400 0.000 0 0 1
P3269 CIRCULAR 0.375 0.000 0 0 1
P3270 CIRCULAR 0.400 0.000 0 0 1
P3271 CIRCULAR 0.296 0.000 0 0 1
P3272 CIRCULAR 0.466 0.000 0 0 1
P3273 CIRCULAR 0.600 0.000 0 0 1
P3274 CIRCULAR 0.300 0.000 0 0 1
P3275 CIRCULAR 0.500 0.000 0 0 1
P3276 CIRCULAR 0.470 0.000 0 0 1
P3277 CIRCULAR 0.400 0.000 0 0 1
P3278 RECT_CLOSED 1.000 1.400 0 0 1
P3279 CIRCULAR 0.300 0.000 0 0 1
P3280 CIRCULAR 0.297 0.000 0 0 1
P3281 CIRCULAR 0.296 0.000 0 0 1
P3282 CIRCULAR 1.200 0.000 0 0 1
P3283 CIRCULAR 0.375 0.000 0 0 1
P3284 CIRCULAR 0.400 0.000 0 0 1
P3285 CIRCULAR 0.188 0.000 0 0 1
P3286 CIRCULAR 0.300 0.000 0 0 1
P3287 CIRCULAR 0.300 0.000 0 0 1
P3288 CIRCULAR 0.297 0.000 0 0 1
P3289 CIRCULAR 0.466 0.000 0 0 1
P3290 CIRCULAR 0.500 0.000 0 0 1
P3291 CIRCULAR 0.400 0.000 0 0 1
P3292 CIRCULAR 0.300 0.000 0 0 1
P3293 CIRCULAR 0.295 0.000 0 0 1
P3294 CIRCULAR 0.376 0.000 0 0 1
P3295 CIRCULAR 0.700 0.000 0 0 1
P3296 CIRCULAR 0.400 0.000 0 0 1
P3297 CIRCULAR 0.296 0.000 0 0 1
P3298 CIRCULAR 0.375 0.000 0 0 1
P3299 CIRCULAR 0.500 0.000 0 0 1
P3300 EGG 0.700 0.000 0 0 1
P3301 CIRCULAR 0.235 0.000 0 0 1
P3302 CIRCULAR 0.400 0.000 0 0 1
P3303 CIRCULAR 0.234 0.000 0 0 1
P3304 CIRCULAR 0.300 0.000 0 0 1
P3305 CIRCULAR 0.400 0.000 0 0 1
P3306 CIRCULAR 0.600 0.000 0 0 1
P3307 CIRCULAR 0.235 0.000 0 0 1
P3308 CIRCULAR 0.400 0.000 0 0 1
P3309 CIRCULAR 0.297 0.000 0 0 1
P3310 CIRCULAR 0.593 0.000 0 0 1
P3311 CIRCULAR 0.188 0.000 0 0 1
P3312 CIRCULAR 0.500 0.000 0 0 1
P3313 CIRCULAR 0.500 0.000 0 0 1
P3314 CIRCULAR 0.400 0.000 0 0 1
P3315 CIRCULAR 0.400 0.000 0 0 1
P3316 CIRCULAR 0.296 0.000 0 0 1
P3317 CIRCULAR 0.500 0.000 0 0 1
P3318 CIRCULAR 0.296 0.000 0 0 1
P3319 CIRCULAR 0.400 0.000 0 0 1
P3320 CIRCULAR 0.250 0.000 0 0 1
P3321 CIRCULAR 0.500 0.000 0 0 1
D_N1979 CIRCULAR 0.400 0 0 0 1
D_N2255 CIRCULAR 0.500 0 0 0 1
D_N3550 CIRCULAR 0.400 0 0 0 1
D_S1 CIRCULAR 0.400 0 0 0 1
D_N1783 CIRCULAR 0.400 0 0 0 1
D_S2 CIRCULAR 0.600 0 0 0 1
D_S3 CIRCULAR 0.400 0 0 0 1
D_N2530 CIRCULAR 0.400 0 0 0 1
D_N972 CIRCULAR 0.400 0 0 0 1
D_N4367 CIRCULAR 0.400 0 0 0 1
D_S4 CIRCULAR 0.400 0 0 0 1
D_N3898 CIRCULAR 0.400 0 0 0 1
D_N3185 CIRCULAR 0.860 0 0 0 1
D_S5 CIRCULAR 0.593 0 0 0 1
D_N4305 CIRCULAR 0.400 0 0 0 1
D_S6 CIRCULAR 0.400 0 0 0 1
D_S7 CIRCULAR 0.400 0 0 0 1
D_S8 CIRCULAR 0.400 0 0 0 1
D_N3113 CIRCULAR 0.400 0 0 0 1
D_N2282 CIRCULAR 0.400 0 0 0 1
D_N4331 CIRCULAR 0.600 0 0 0 1
D_S9 CIRCULAR 0.500 0 0 0 1
D_N309 CIRCULAR 0.600 0 0 0 1
D_N3029 CIRCULAR 0.400 0 0 0 1
D_S10 CIRCULAR 0.400 0 0 0 1
D_N863 CIRCULAR 1.200 0 0 0 1
D_N2085 CIRCULAR 0.500 0 0 0 1
D_N701 CIRCULAR 0.400 0 0 0 1
D_N1722 CIRCULAR 0.400 0 0 0 1
D_N2634 CIRCULAR 0.400 0 0 0 1
D_N549 CIRCULAR 0.400 0 0 0 1
D_S11 CIRCULAR 0.400 0 0 0 1
D_N2745 CIRCULAR 0.400 0 0 0 1
D_S12 CIRCULAR 0.400 0 0 0 1
D_S13 CIRCULAR 0.700 0 0 0 1
D_N3842 CIRCULAR 0.500 0 0 0 1
D_N647 CIRCULAR 0.500 0 0 0 1
D_N3135 CIRCULAR 0.400 0 0 0 1
D_N3734 CIRCULAR 0.400 0 0 0 1
D_N2877 CIRCULAR 0.400 0 0 0 1
D_N1464 CIRCULAR 0.500 0 0 0 1
D_S15 CIRCULAR 0.400 0 0 0 1
D_N373 CIRCULAR 0.500 0 0 0 1
D_S18 CIRCULAR 0.400 0 0 0 1
D_N3677 CIRCULAR 0.400 0 0 0 1
D_N853 CIRCULAR 0.400 0 0 0 1
D_N431 CIRCULAR 0.800 0 0 0 1
D_S19 CIRCULAR 0.400 0 0 0 1
D_N2567 CIRCULAR 1.000 0 0 0 1
D_N1376 CIRCULAR 0.400 0 0 0 1
D_N3149 CIRCULAR 0.400 0 0 0 1
D_N3684 CIRCULAR 0.400 0 0 0 1
D_N1657 CIRCULAR 0.400 0 0 0 1
D_S20 CIRCULAR 0.400 0 0 0 1
D_N3717 CIRCULAR 0.400 0 0 0 1
D_S21 CIRCULAR 0.600 0 0 0 1
D_N4012 CIRCULAR 0.400 0 0 0 1
D_N2766 CIRCULAR 0.400 0 0 0 1
D_S22 CIRCULAR 0.600 0 0 0 1
D_N2678 CIRCULAR 0.400 0 0 0 1
D_S27 CIRCULAR 0.470 0 0 0 1
D_N2700 CIRCULAR 0.500 0 0 0 1
D_N4183 CIRCULAR 0.500 0 0 0 1
D_N2425 CIRCULAR 0.400 0 0 0 1
D_N1653 CIRCULAR 0.860 0 0 0 1
D_S28 CIRCULAR 0.500 0 0 0 1
D_N1810 CIRCULAR 0.400 0 0 0 1
D_N1868 CIRCULAR 0.400 0 0 0 1
D_N3153 CIRCULAR 0.400 0 0 0 1
D_S30 CIRCULAR 0.400 0 0 0 1
D_N3932 CIRCULAR 0.400 0 0 0 1
D_N3076 CIRCULAR 0.400 0 0 0 1
D_N1020 CIRCULAR 0.500 0 0 0 1
D_N1235 CIRCULAR 0.400 0 0 0 1
D_S32 CIRCULAR 0.600 0 0 0 1
D_S33 CIRCULAR 0.500 0 0 0 1
D_N3485 CIRCULAR 0.480 0 0 0 1
D_N3095 CIRCULAR 0.400 0 0 0 1
D_N3378 CIRCULAR 0.400 0 0 0 1
D_N2911 CIRCULAR 0.590 0 0 0 1
D_S36 CIRCULAR 0.500 0 0 0 1
D_N2159 CIRCULAR 0.400 0 0 0 1
D_N554 CIRCULAR 0.500 0 0 0 1
D_N779 CIRCULAR 0.400 0 0 0 1
D_S37 CIRCULAR 0.400 0 0 0 1
D_N4340 CIRCULAR 0.400 0 0 0 1
D_N4081 CIRCULAR 0.400 0 0 0 1
D_N253 CIRCULAR 0.400 0 0 0 1
D_S41 CIRCULAR 0.400 0 0 0 1
D_S42 CIRCULAR 0.400 0 0 0 1
D_N4181 CIRCULAR 0.500 0 0 0 1
D_N2832 CIRCULAR 0.600 0 0 0 1
D_S45 CIRCULAR 0.400 0 0 0 1
D_N1755 CIRCULAR 0.500 0 0 0 1
D_N565 CIRCULAR 0.400 0 0 0 1
D_S46 CIRCULAR 0.400 0 0 0 1
D_S47 CIRCULAR 0.720 0 0 0 1
D_N2125 CIRCULAR 0.800 0 0 0 1
D_N990 CIRCULAR 0.400 0 0 0 1
D_S49 CIRCULAR 0.600 0 0 0 1
D_N4334 CIRCULAR 0.500 0 0 0 1
D_S51 CIRCULAR 0.400 0 0 0 1
D_N3606 CIRCULAR 0.480 0 0 0 1
D_N3824 CIRCULAR 0.400 0 0 0 1
D_N2231 CIRCULAR 0.400 0 0 0 1
D_N1793 CIRCULAR 0.400 0 0 0 1
D_S52 CIRCULAR 0.400 0 0 0 1
D_N446 CIRCULAR 0.650 0 0 0 1
D_N3956 CIRCULAR 0.600 0 0 0 1
D_N3384 CIRCULAR 0.400 0 0 0 1
D_S54 CIRCULAR 0.400 0 0 0 1
D_N2284 CIRCULAR 0.500 0 0 0 1
D_N1395 CIRCULAR 0.500 0 0 0 1
D_N2631 CIRCULAR 0.400 0 0 0 1
D_S56 CIRCULAR 0.480 0 0 0 1
D_N304 CIRCULAR 0.400 0 0 0 1
D_N3579 CIRCULAR 0.600 0 0 0 1
D_N3971 CIRCULAR 0.400 0 0 0 1
D_N2651 CIRCULAR 0.400 0 0 0 1
D_N2994 CIRCULAR 0.400 0 0 0 1
D_N2040 CIRCULAR 0.400 0 0 0 1
D_S59 CIRCULAR 0.400 0 0 0 1
D_S60 CIRCULAR 0.400 0 0 0 1
D_N3183 CIRCULAR 0.400 0 0 0 1
D_S62 CIRCULAR 0.400 0 0 0 1
D_N3228 CIRCULAR 0.400 0 0 0 1
D_S63 CIRCULAR 0.400 0 0 0 1
D_S64 CIRCULAR 0.600 0 0 0 1
D_N1058 CIRCULAR 0.400 0 0 0 1
D_N335 CIRCULAR 0.400 0 0 0 1
D_N3751 CIRCULAR 0.500 0 0 0 1
D_S70 CIRCULAR 0.400 0 0 0 1
D_S71 CIRCULAR 0.400 0 0 0 1
D_S73 CIRCULAR 0.400 0 0 0 1
D_N2018 CIRCULAR 0.400 0 0 0 1
D_N1433 CIRCULAR 0.400 0 0 0 1
D_N3420 CIRCULAR 0.400 0 0 0 1
D_N2162 CIRCULAR 0.400 0 0 0 1
D_N649 CIRCULAR 0.400 0 0 0 1
D_S77 CIRCULAR 0.400 0 0 0 1
D_N3298 CIRCULAR 0.500 0 0 0 1
D_S78 CIRCULAR 0.710 0 0 0 1
D_N2169 CIRCULAR 0.400 0 0 0 1
D_N3912 CIRCULAR 0.400 0 0 0 1
D_S83 CIRCULAR 0.500 0 0 0 1
D_S84 CIRCULAR 0.700 0 0 0 1
D_S85 CIRCULAR 0.400 0 0 0 1
D_S86 CIRCULAR 0.400 0 0 0 1
D_S87 CIRCULAR 0.400 0 0 0 1
D_S91 CIRCULAR 0.400 0 0 0 1
D_S92 CIRCULAR 0.500 0 0 0 1
D_S93 CIRCULAR 0.400 0 0 0 1
D_N161 CIRCULAR 0.400 0 0 0 1
D_N2360 CIRCULAR 0.400 0 0 0 1
D_S95 CIRCULAR 0.400 0 0 0 1

[REPORT]
INPUT NO
CONTROLS NO
SUBCATCHMENTS NONE
NODES NONE
LINKS NONE

[COORDINATES]
;;Node X Y
N1545 120951.45 486881.14
N1778 120933.63 486883.23
N3267 121669.40 487264.22
N1979 121672.06 487262.84
N1221 120571.76 486330.29
N937 120584.85 486341.22
N1542 120805.45 487221.22
N6 120807.21 487240.33
N2120 121573.21 487356.53
N599 121603.35 487341.74
N3250 121274.68 486265.61
N1880 121283.23 486263.45
N3935 121344.00 486139.60
N1666 121342.70 486140.00
N1918 121174.50 486145.90
N2570 121147.50 486152.30
N2821 121390.31 487037.00
N669 121406.41 487036.44
N2732 121117.70 486102.90
N450 121062.60 486117.50
N905 121213.85 487497.48
N163 121231.16 487487.84
N1749 121054.83 487450.00
N4149 121066.56 487499.10
N1041 120711.70 486410.07
N3033 120701.43 486421.25
N3544 121266.31 487352.14
N3188 121284.32 487336.54
S0 120411.00 486923.50
N3202 120460.60 486949.80
N3024 121488.06 487124.17
N1466 121498.68 487142.34
N4144 120733.06 486253.57
N2081 120736.60 486244.80
N540 120536.85 486519.37
N3075 120550.75 486527.82
N3467 120621.55 486408.62
N151 120631.84 486416.87
N3941 121105.10 486025.90
N3789 121124.00 486022.20
N2255 121146.45 486514.98
N4172 121111.04 486547.22
N1047 121360.10 486618.62
N986 121353.94 486578.78
N656 121655.21 487289.16
N1693 121632.18 487300.74
N3458 121423.77 486986.82
N1959 121421.46 486973.01
N1066 121179.49 487494.08
N1700 121164.56 487503.39
N1852 120897.50 486123.30
N3442 120865.00 486149.60
N3900 120555.27 487099.65
N3621 120540.21 487092.43
N3281 121805.09 486954.11
N1317 121794.35 486962.29
N188 121099.88 486965.26
N2866 121104.61 486978.62
N847 121808.13 487092.37
N3550 121818.78 487087.86
N2814 121637.77 486793.43
N3157 121639.83 486792.34
N2884 121510.58 487211.22
N3998 121499.21 487194.44
N348 120754.41 486892.16
N1627 120747.63 486894.19
N1939 120742.40 486211.60
N3547 120769.00 486190.10
N2956 120855.26 486579.12
N2472 120864.92 486569.72
N3653 120961.50 486143.10
N1216 120940.90 486155.10
N2195 120630.06 486252.86
S1 120610.30 486238.60
N3168 120602.12 486311.27
N4038 120593.31 486323.04
N142 120821.40 486621.60
N1787 120777.21 486659.07
N2757 120677.39 487384.61
N2822 120677.65 487382.74
N1110 121298.14 487056.28
N3515 121305.02 487082.72
N4245 121788.10 486373.00
N122 121758.78 486364.11
N923 121336.12 487067.41
N325 121332.81 487049.50
N3593 121249.31 486654.40
N1783 121250.40 486659.94
N1439 121414.67 487364.95
N678 121412.61 487362.48
N3211 120690.24 487288.09
N3001 120734.35 487285.39
N4157 121734.99 487227.96
N370 121765.03 487212.67
N402 121559.54 487225.78
N4239 121572.48 487242.38
N4076 121093.71 486891.83
N432 121092.62 486901.33
N1451 121996.83 486751.00
N4339 121990.05 486741.54
N1671 120761.29 486489.84
N3217 120774.47 486474.80
N2933 121593.35 486548.98
N1312 121573.99 486544.85
N1173 121934.95 487116.46
S2 121959.11 487136.94
N1820 121815.63 486633.61
N3284 121820.65 486627.47
N1143 121260.74 486959.77
N714 121267.97 486958.52
N2294 121683.11 486383.86
N4158 121688.98 486359.24
N112 121266.83 486652.36
N1911 121284.90 486651.36
N933 121953.92 486665.33
N1696 121965.53 486679.96
N2828 121934.48 486601.97
N2148 121931.39 486611.93
N2638 120598.05 486635.35
N3648 120605.88 486639.16
N3487 121594.40 486315.19
N4356 121550.78 486301.94
N380 120618.78 486956.09
N2938 120620.30 486972.16
N3496 121091.10 486880.42
N4137 121085.06 486867.83
S3 121963.78 486518.47
N1268 121956.59 486541.25
N2292 121597.60 487188.21
N3017 121601.87 487185.93
N883 120419.40 486649.70
N334 120431.50 486655.60
N774 121498.79 487187.53
N3200 121500.75 487186.27
N715 121525.30 487182.53
N467 121522.65 487179.52
N3379 121178.54 487235.31
N3241 121178.67 487232.33
N182 121325.79 487011.30
N1826 121329.76 487031.56
N4221 121530.22 486205.20
N4364 121529.44 486221.01
N4215 121288.74 486836.14
N4016 121296.76 486824.07
N1427 121530.13 486865.25
N2647 121522.45 486845.64
N1282 121348.85 487380.58
N92 121335.75 487388.26
N3109 120652.54 486923.19
N1324 120651.18 486901.50
N2530 120567.37 486335.35
N2133 120848.77 486888.53
N4255 120898.01 486885.74
N2131 121715.84 487328.00
N1519 121713.44 487329.69
N1725 120644.21 486420.13
N764 120635.21 486420.61
N400 121643.57 486287.02
N201 121642.25 486291.34
N642 120978.10 486058.30
N4217 120991.40 486047.80
N1091 120607.01 486753.74
N3430 120611.52 486750.98
N3597 121739.35 486826.94
N1368 121728.03 486810.84
N1861 121092.45 486886.39
N379 120680.27 486601.49
N884 120666.39 486592.43
N972 121754.75 487000.83
N4367 121753.00 486993.30
N2598 121531.58 486650.53
N3669 121528.40 486678.53
N2307 121586.89 487310.78
N2614 121577.91 487298.86
N3590 120556.82 486998.85
N954 120560.37 486992.62
N1463 121071.70 486374.78
N931 121085.28 486362.63
N2393 121541.17 487349.30
N991 121528.51 487355.93
N770 120448.10 486884.80
N3409 120471.20 486840.00
N1108 120615.81 486897.49
N2959 120614.21 486868.47
N1597 121574.85 486681.92
N2257 121574.70 486675.80
N1768 120578.76 486861.32
N261 120577.59 486863.39
N1431 120929.71 486902.48
N4203 120928.28 486902.56
N2403 120886.80 486351.39
N2585 120842.08 486400.42
N2776 121143.85 487563.25
N1486 121142.21 487564.35
N3856 120567.49 486540.94
N2725 120566.02 486543.31
N1702 121023.30 486124.70
N301 121024.90 486131.90
N3240 120748.90 486242.50
N3921 120731.30 486220.30
N4251 120937.37 487472.93
N20 120932.44 487406.34
N1802 121826.12 487005.53
N3260 121814.21 486988.82
N2835 121492.32 487524.42
N3576 121496.24 487529.44
N2708 121088.71 486368.88
N2541 121484.53 486979.83
N1126 121493.92 486996.94
N282 121814.72 486701.15
N3631 121813.47 486699.24
N1195 121557.75 487453.73
N759 121522.00 487418.43
N3936 121945.64 486857.77
N968 121946.15 486853.81
N3453 121024.21 487003.54
N1222 121020.60 486974.13
N3505 121118.53 487370.00
N2099 121140.01 487367.62
N2617 121540.61 486516.25
N2669 121539.07 486538.60
N4112 121111.19 487279.14
N3180 121106.51 487277.14
N2629 121875.99 486871.23
N2397 121881.97 486880.41
N2138 120896.10 486086.90
N1353 120914.00 486072.61
N2314 121122.99 487389.21
N576 121132.42 487421.50
N2411 121426.55 486764.06
N609 121428.49 486766.16
N4004 121063.70 486033.70
N2171 121086.80 486029.20
N2214 121030.44 487567.35
S4 121046.13 487597.04
N4332 121180.78 486754.08
N3905 121191.02 486759.97
N2817 120556.45 487016.18
N3898 120499.40 486985.70
N2002 121348.08 487352.62
N2709 121344.86 487354.10
N566 121053.06 486900.80
N924 121058.50 486884.27
N3700 121670.41 486207.17
N2628 121677.41 486184.17
N3185 120604.80 486718.60
N397 120603.09 486696.64
N3637 120765.85 486680.49
N511 120767.06 486681.03
N2460 121798.29 486643.50
N1878 121657.66 487247.44
N2262 121897.33 486857.17
N360 121124.62 487590.81
N741 121126.83 487589.28
N2361 121153.97 487082.54
N1476 121145.67 487069.61
N3402 121190.13 486896.41
N1518 121170.43 486890.15
N3670 120673.34 487257.89
N499 120674.49 487274.52
N3864 121688.71 486598.90
N2533 121692.74 486617.87
N4163 120430.80 486711.90
N3948 120423.30 486729.70
N2380 121818.28 486969.93
N3729 121870.49 487000.47
N795 121875.24 486988.55
N3457 121583.35 487327.35
N3414 121575.24 487331.48
N1662 121724.32 487165.56
N1096 121731.99 487161.77
N516 121128.40 487040.10
N2566 121134.66 487053.86
N1968 121466.79 487261.49
N1386 121453.31 487268.55
N4121 121656.77 486452.20
N603 121629.81 486444.15
N2565 121149.24 487246.28
N3664 121139.21 487241.25
N653 121291.61 487583.06
N4084 121281.99 487569.79
N1833 120972.07 486257.96
N1549 120946.28 486285.70
N1387 120912.11 486063.20
N1912 121230.48 487065.61
N217 121240.46 487067.43
N1533 120627.38 487134.12
N1415 120630.31 487135.24
N3216 121312.78 486832.50
N404 121585.44 487383.56
N506 121621.06 487365.89
N3695 121213.13 486062.59
N1114 121218.22 486079.81
N1883 121194.52 487090.27
N313 121199.50 487086.01
N1615 121324.66 487426.45
N3884 121339.84 487447.44
N600 121279.87 486246.77
N630 121277.78 486237.48
N1521 120496.10 486563.80
N1867 120489.80 486578.00
N2483 121172.79 487537.23
N888 121202.28 487576.49
N3221 121482.46 486876.37
N1405 121480.37 486882.99
N1553 121590.25 487168.35
N3707 121578.81 487151.45
S5 120901.85 486045.19
N3311 121117.67 486267.34
N2107 121133.37 486263.83
N2932 121929.90 486933.59
N2564 121955.82 486915.10
N2746 120800.16 486631.50
N1247 120827.09 486660.65
N3319 121703.49 486827.50
N1254 121695.68 486814.63
N1224 121505.22 487530.96
N1109 121503.98 487523.19
N1805 120883.20 486129.70
N3047 120881.70 486127.80
N79 121473.78 486681.38
N4305 121527.18 486680.56
N914 120930.61 486297.55
N1815 120928.82 486295.87
N2735 121819.54 486942.72
N154 121811.91 486949.22
N157 121607.87 487338.73
N629 121600.65 487329.98
N2569 121021.52 487551.00
N1961 120800.60 487147.43
N2639 120801.63 487163.43
N279 120533.38 486765.07
N3507 120525.87 486779.79
N1747 121245.78 487068.13
N1448 121723.94 487071.57
N14 121735.76 487091.75
N3068 121803.77 486979.24
N323 121808.08 486978.42
N3891 121091.89 487271.92
N2088 121155.20 487507.77
N413 121158.31 487505.95
N3642 121061.81 486834.05
N2900 121046.72 486834.63
N1155 121017.85 486685.92
N3626 121001.71 486701.05
N3088 121135.84 487054.05
N23 121401.95 486288.60
N2928 121431.35 486281.90
N2857 121846.06 486993.31
N1233 121844.68 486973.58
N3257 121533.34 486454.36
N1271 121533.67 486448.65
N598 120758.22 487283.92
N1127 120609.02 486873.46
S6 120682.82 487419.10
N1481 120679.88 487365.41
N641 121260.84 486357.72
N75 121258.71 486356.01
N2440 120993.49 486834.41
N3025 121006.63 486817.56
N1161 120567.19 486947.50
N3760 120608.27 486968.91
N2721 121972.06 486651.40
N2940 121595.84 486929.46
N387 121569.32 486886.16
N919 121277.86 487241.36
N2761 121277.73 487220.15
N3322 120677.82 486403.42
N1242 120691.43 486413.69
N2419 121645.56 486484.97
N1024 121682.24 486497.04
N284 121126.06 486881.41
N1724 120555.01 486361.31
N1331 120562.38 486366.94
N4274 121091.57 487206.89
N2356 121082.28 487140.67
N2763 120908.25 487051.29
N3913 120909.85 487070.45
S7 120577.78 486291.66
N3195 120611.35 486317.00
N2249 121376.12 486811.09
N3802 121369.50 486818.94
N2684 120716.60 486176.50
N1028 120739.50 486159.40
N2778 120767.76 486650.85
N4290 120753.71 486642.41
N742 121606.46 487089.26
N2903 121609.45 487088.38
N3028 121348.47 487110.53
N195 121361.80 487109.28
S8 121335.04 487589.09
N4244 121296.66 487581.07
N1506 121247.62 487556.86
N2059 121253.77 487568.27
N262 121587.96 487362.03
N145 121576.45 487367.78
N441 121632.12 487209.41
N1512 121624.24 487197.47
N2065 120617.86 486938.26
N3273 121463.03 486430.25
N2022 121458.72 486432.32
N3148 120665.71 486326.85
N2748 120680.76 486308.34
N580 120751.20 486949.42
N255 120749.71 486927.33
N3294 121524.30 486360.40
N2945 121525.05 486339.58
N3262 121175.08 486985.23
N4254 121171.93 486967.15
N1816 120637.65 486730.86
N860 120635.45 486731.01
N4078 121394.95 486592.48
N1670 121419.25 486587.07
N2129 121510.08 487301.58
N2270 121559.67 487274.91
N746 120453.70 486705.50
N2961 120470.70 486690.10
N2017 121169.63 487303.75
N2500 121168.80 487312.17
N1776 121275.02 486224.62
N826 121271.62 486209.97
N1208 121922.30 487018.60
N487 121914.84 487035.17
N2930 121849.65 487200.23
N1779 121849.10 487211.84
N3486 120931.28 487392.66
N3592 120665.70 486353.26
N4116 120652.40 486343.21
N52 121263.87 486320.31
N176 121270.49 486319.80
N2072 121732.38 487003.56
N1016 121752.20 486997.33
N2591 121528.84 486239.70
N1772 120414.30 486749.00
N3214 120664.37 487112.72
N952 120665.59 487132.72
N2399 121485.83 487174.22
N2190 121476.88 487158.75
N989 120889.81 486297.26
N352 120906.26 486279.35
N3232 121572.07 487001.26
N3344 121558.75 487005.43
N918 120672.35 487309.55
N3113 120670.51 487309.65
N706 120510.31 486533.24
N249 120505.20 486543.31
N4160 120951.91 486618.59
N4000 120936.51 486606.60
N2212 121016.10 486182.90
N1465 121002.50 486186.10
N3196 121316.96 487319.07
N1446 121333.85 487316.91
N3785 121899.90 487070.25
N2749 121871.26 487067.13
N303 121376.94 486294.09
N1621 121821.23 487093.30
N3321 121030.07 487433.38
N2282 121020.44 487435.28
N602 121624.66 486623.15
N3849 121623.96 486614.47
N3568 121326.40 486147.80
N3421 121379.50 486135.70
N2056 121679.21 486871.04
N2864 121670.20 486855.10
N2216 121265.47 486941.46
N345 121252.40 486942.20
N2082 120913.78 486578.44
N1340 120897.51 486593.68
N4035 121338.48 487233.19
N26 121339.04 487247.66
N36 121626.26 487049.37
N4331 121609.08 487056.91
N687 121212.37 487314.31
N2702 121244.14 487319.33
N81 120708.91 486432.71
N785 120698.75 486424.81
N1699 121020.30 487391.04
N1200 120975.51 487399.00
N2150 121611.04 487017.89
N2196 121642.57 487006.42
N1202 120828.46 486279.75
N2637 120801.05 486311.17
N4009 121648.25 486589.54
N3984 121651.16 486566.80
N4028 121214.00 486141.58
N21 121214.50 486143.50
N2736 121506.59 487213.15
N1853 121699.46 486652.53
N3854 121696.79 486637.44
N1593 120675.65 487066.98
N2521 120661.70 487068.11
N51 121197.07 487234.38
N2824 121198.09 487222.90
N1560 120529.43 486390.50
N808 120542.85 486376.34
N825 121564.95 487089.63
N2288 121572.71 487103.85
N415 121026.61 486301.35
N710 121042.20 486285.61
N1917 120937.54 486778.12
N3564 120930.36 486773.95
N524 120746.83 486878.62
N4189 121428.28 486865.97
N736 121452.08 486863.48
N2363 120614.95 487048.15
N280 120602.73 487041.95
N614 121467.48 486788.69
N339 121469.56 486791.19
N3320 121765.41 487110.63
N1667 121749.88 487115.84
N3426 121797.68 487327.02
S9 121815.66 487320.32
N2974 121749.84 486955.00
N2256 121740.04 486938.26
N144 121559.83 487117.34
N309 121550.45 487100.47
N3415 121962.16 486575.26
N4295 121963.02 486572.47
N727 121165.14 487363.93
N4188 121171.73 487381.74
N3029 121272.89 486314.11
N707 121271.21 486323.55
N1751 120850.03 486256.96
N3482 120893.50 486208.90
N507 120799.43 486891.46
N153 121335.13 487329.65
N3275 121263.90 486167.80
N3545 121264.00 486162.50
N4187 121509.71 486263.64
N3449 121526.62 486260.25
N3703 121476.36 486965.36
S10 120561.78 486308.08
N1625 120572.67 486316.37
N3714 121305.55 487488.93
N1292 121322.38 487493.08
N2618 120520.05 486400.50
N293 121555.96 486173.07
N71 121554.05 486206.84
N2247 120973.92 486921.58
N3826 120980.33 486971.52
N2584 121125.13 486886.16
N1825 121123.72 486894.43
N2989 121161.90 486092.80
N2136 121203.70 486083.10
N3649 120753.29 486985.89
N1134 120752.28 486969.67
N2304 121073.33 486866.44
N377 121064.79 486871.98
N4143 120970.07 487269.39
N2605 120956.75 487270.70
N1329 121220.50 486629.69
N2514 121227.35 486657.08
N1535 121625.56 486634.70
N681 121625.14 486629.78
N2228 121634.67 487235.27
N2341 121644.91 487251.00
N730 121567.45 486176.19
N1928 121316.24 486585.50
N1932 121281.17 486595.09
N4348 121560.55 487270.12
N294 121562.50 487268.66
N1554 120758.40 486230.20
N3634 120756.90 486228.30
N644 121077.00 486792.72
N3940 121087.09 486780.04
N4132 121802.30 486976.34
N1192 121072.74 486868.24
N4103 121081.49 486864.04
N762 121206.77 487223.85
N3083 121203.82 487222.88
N3715 121480.75 487105.98
N863 121296.70 486944.81
N1801 121291.66 486945.43
N1665 121750.27 487039.25
N3658 121723.99 487049.10
N2006 121565.33 486876.56
N2034 120748.84 486910.22
N1362 120780.37 486554.91
N2950 120794.32 486540.85
N2595 121110.80 486751.23
N2029 121098.01 486767.73
N3093 121172.19 486749.86
N3805 120495.60 486837.00
N3085 120514.88 486847.25
N1337 121270.30 486123.70
N496 121286.30 486120.20
N4082 121519.35 487175.24
N2352 121539.76 487166.91
N663 121439.62 487462.28
N1267 121441.34 487459.19
N1511 120562.52 486513.61
N3182 121593.07 487143.93
N3175 121591.02 487145.11
N167 121321.18 487332.49
N2767 121824.11 487101.77
N2442 120482.00 486810.50
N1354 120480.80 486812.70
N4306 120608.87 486696.18
N2473 120610.88 486696.06
N1081 121948.00 486636.76
N2000 121963.22 486644.35
N2085 121660.44 486838.50
N3901 120794.47 487058.30
N816 120795.86 487076.95
N4041 121912.98 486958.15
N330 121946.78 486934.91
N1441 121500.80 486545.60
N28 121517.46 486541.73
N3280 120666.80 487149.19
N4355 121846.79 486896.57
N1338 121845.96 486899.25
N844 120421.10 486796.00
N3351 120422.20 486793.90
N2920 120817.98 486516.11
N3466 120803.88 486505.77
N3187 121643.39 486562.47
N2738 121306.30 486115.70
N3006 121729.29 486355.24
N2563 121673.10 486339.05
N4057 121295.47 487489.53
N2050 121163.01 486499.64
N4095 121155.53 486489.27
N4325 121778.99 486654.49
N100 121776.49 486650.00
N621 120682.17 486524.37
N1438 120678.67 486521.07
N192 121571.87 487132.00
N1149 121573.84 487130.92
N4178 121825.81 486612.31
N3546 121107.38 487371.09
N2342 121312.20 486803.95
N3892 121206.32 486768.65
N2232 121213.81 486772.90
N3624 121002.16 487146.64
N2797 120995.70 487093.80
N2552 121320.61 487050.44
N5 121316.90 487528.16
N2519 121286.54 487519.01
N4200 121194.71 487400.92
N2972 121190.19 487383.26
N2191 120578.11 486436.41
N701 120574.24 486433.43
N2531 121080.62 486881.98
N2038 120786.75 486942.04
N3266 120785.99 486927.98
N1170 121089.17 487109.81
N4110 121095.39 487151.39
N1756 121158.98 487196.43
N2747 121155.48 487198.74
N3994 121117.88 486694.94
N3171 121106.38 486702.01
N3255 120691.36 486296.98
N61 120677.58 486313.85
N588 120953.20 486228.20
N3807 120966.90 486213.30
N3709 121619.79 487424.10
N2594 121660.94 487406.03
N2239 120438.20 486787.70
N3769 120437.00 486790.00
N97 120432.00 486822.00
N353 120412.00 486863.90
N4102 121758.21 486667.37
N2112 121789.44 486649.88
N3343 121225.10 486002.38
N3296 121231.77 486000.93
N104 121811.39 487188.93
N4269 121820.70 487183.00
N1044 121443.71 487459.73
N835 121451.18 487472.74
N1759 121628.55 486984.75
N2829 121613.37 486958.25
N3798 121079.57 486576.63
N12 121298.18 486940.47
N3081 121300.53 486938.56
N3077 121341.54 486580.84
N1982 121367.40 486653.63
N3102 121363.70 486646.06
N1276 120658.93 486397.32
N786 120668.93 486402.34
N4205 121483.17 486896.20
N2109 121098.71 486708.69
N1319 121081.28 486728.80
N3920 121964.28 486705.80
N4289 121962.61 486721.73
N3981 121070.14 486679.58
N1089 121063.90 486676.04
N4030 121978.60 486911.46
N1018 121991.91 486902.12
N3821 121267.01 486689.71
N107 121266.93 486687.05
N1555 121703.18 486672.32
N1508 121705.12 486676.84
N2557 121051.60 486035.90
N2436 121155.92 487164.13
N4037 121153.58 487147.50
N3965 121601.43 486861.30
N3126 121592.49 486845.95
N3493 121543.23 487009.65
N3782 121524.05 487015.09
N4229 121068.85 487049.74
N3031 121081.11 487055.08
N1722 121386.82 487394.32
N2525 121401.13 487410.50
N2978 121321.70 486056.10
N4117 121308.10 486059.30
N3456 121730.34 486351.82
N2634 121730.99 486349.69
N2234 121102.19 487453.01
N2619 121093.43 487417.86
N3724 120627.93 487093.93
N398 120624.21 487032.39
N11 121517.09 486455.97
N2345 121970.69 486715.69
N134 121981.33 486731.01
N1499 121635.34 486684.34
N1858 121360.50 486047.00
N4327 121341.20 486051.50
N1402 120548.79 486695.78
N3551 120563.83 486703.35
N849 121408.62 487178.60
N549 121437.66 487170.83
S11 121802.99 487345.22
N1989 120963.59 487352.90
N2208 120963.97 487360.39
N2233 120929.34 487364.73
N3032 120506.84 487165.28
N1926 120533.56 487176.50
N4236 121569.64 487287.81
N2205 121165.51 486745.85
N2926 121588.40 487024.59
N983 121913.87 487080.82
N532 121907.62 487094.69
N2745 120476.40 486482.60
S12 120468.96 486476.94
N1764 121585.62 487195.22
N2110 121483.85 486106.92
N3968 121483.77 486107.23
N4050 121815.18 486950.17
N3268 121816.81 486952.33
N3259 121316.76 486935.10
N342 121315.33 486950.91
N2965 121194.80 486042.20
N3181 121208.69 486039.47
N1411 121129.25 486860.21
N2281 121127.36 486871.42
N2407 120755.80 487025.09
N405 120754.23 487007.33
N2667 121198.14 487214.72
N3147 121775.57 486726.66
N3223 121774.40 486724.87
N3264 121327.37 487236.14
N911 121329.21 487236.08
N2888 121430.10 486195.50
N1197 121451.50 486190.72
N3204 120625.20 486982.34
N2332 120627.87 486982.19
N544 121718.99 486797.31
N2886 121710.01 486782.97
N3591 121229.37 486021.25
N3097 121234.25 486037.52
N2872 121249.10 486095.64
N3012 121251.48 486104.83
N635 121919.05 486877.37
N3865 121849.75 487217.70
N552 121848.63 487241.18
N3208 121110.81 487486.90
N2101 121217.32 487575.25
N376 120698.29 486506.91
N1967 120694.46 486503.30
N2007 120644.22 486302.79
N1148 120656.36 486286.57
N3801 121257.61 486909.16
N3096 121264.08 486909.71
N3133 120788.99 486976.04
N1827 120788.03 486960.26
N3445 121195.44 487484.08
N683 121191.73 487486.50
N180 121675.95 487425.14
N2340 121669.55 487416.90
N2137 121533.58 487069.19
N821 121541.42 487084.43
N2977 120948.71 487185.21
N528 120948.00 487185.20
N3879 121067.21 487479.76
N2432 121069.93 487479.11
N1504 121383.75 487107.20
N222 121447.84 487103.21
N1523 121807.67 487214.81
N3177 121817.78 487231.94
N2269 121779.53 487242.09
N3678 121771.76 487225.77
N936 121293.93 487057.61
N109 121278.16 487062.62
N4127 120909.94 487274.36
N1060 120924.05 487273.82
N539 121347.86 487233.01
N140 121413.75 487425.67
N1938 120824.40 487490.70
S13 120826.46 487503.10
N4036 121293.30 486150.30
N719 121293.00 486151.10
N2327 120731.43 486659.77
N625 120714.27 486649.89
N1940 121888.19 487131.62
N3852 121897.90 487115.21
N950 121839.95 487046.30
N3575 121836.58 487028.06
N2671 121470.37 487149.17
N2819 121461.43 487133.92
N2553 120628.00 487215.84
N3764 120635.26 487216.75
N2624 121427.00 487002.42
N4260 120669.92 486263.81
N1168 120678.60 486243.80
N1393 121702.83 486675.93
N855 121724.38 486673.88
N1580 121303.40 486405.32
N1461 121304.37 486405.11
N4204 121121.64 486895.49
N39 121158.82 486912.65
N1673 121136.16 486634.54
N1952 121123.66 486642.31
N3481 120946.07 487109.68
N2115 120945.16 487085.56
N1587 120837.37 486525.63
N196 120820.83 486513.07
N2289 120633.24 486317.25
N4353 120610.55 486317.91
N78 121519.02 486066.39
N3928 121499.99 486070.81
N2731 121091.13 486404.26
N3978 121094.60 486407.92
N3125 121985.30 486735.74
N3581 120817.60 486110.40
N399 120811.53 486102.84
N2298 121006.85 486881.28
N2522 121012.22 486882.40
N1769 121145.27 487115.35
N1026 121140.32 487101.13
N1456 121968.79 486918.15
N3213 120793.00 487038.42
N3219 121090.35 486403.46
N3248 121089.46 486402.54
N494 120934.74 486902.32
N3408 121215.23 487497.90
N1144 121231.62 487527.78
N1470 121181.74 486832.57
N2830 121185.87 486818.26
N3666 121105.31 486398.27
N1607 121359.06 486944.79
N3176 121384.35 486942.34
N3990 120571.99 486445.15
N1184 120605.86 486403.01
N589 121312.49 486993.03
N3026 121323.31 486991.79
N2838 121211.14 487416.95
N4029 121201.31 487417.70
N2012 121336.76 487187.28
N2263 121337.66 487213.16
N290 121256.69 487104.45
N1976 120956.12 487047.90
N3842 120943.06 487048.92
N2602 121194.30 486141.50
N1492 121212.90 486136.80
N852 120784.04 486877.02
N2841 121215.05 487427.07
N2222 121226.28 487421.95
N1650 121754.55 487002.71
N2160 121762.41 487015.45
N3916 120865.29 486467.32
N1085 121189.25 486250.84
N1846 121210.60 486246.90
N3750 120973.02 487466.96
N2771 120997.97 487510.34
N228 121448.40 486919.81
N3286 121441.54 486920.54
N2593 120643.96 486779.36
N3340 120646.64 486821.18
N541 120611.52 486566.82
N3342 120610.14 486568.87
N3739 121547.58 487514.87
N4 121533.63 487499.56
N1596 120992.04 486336.77
N2881 121012.17 486316.32
N1154 120627.28 487310.18
N3494 120641.13 487315.00
N1570 120752.34 486583.34
N368 120767.12 486568.42
N1887 121971.08 486653.56
N2144 121963.38 486660.14
N1407 121355.16 486456.14
N1720 121345.35 486458.30
N347 121277.20 486230.80
N647 121289.50 486228.40
N4336 120761.59 486437.62
N3094 120777.98 486419.80
N3100 121632.57 486983.47
N3744 121575.81 486894.31
N508 121571.40 486899.90
N3790 120627.60 486504.14
N199 120626.64 486507.45
N3018 121703.99 487245.06
N2339 121308.60 487100.92
N306 121313.34 487129.09
N1694 120939.53 486708.72
N1524 120934.64 486718.89
N2705 121528.05 486825.69
N1641 121535.69 486831.13
N921 120742.72 486818.64
N1600 120741.16 486792.26
N3098 121553.56 486540.65
N4190 121752.77 486485.97
N2707 121752.04 486488.36
N3470 121041.44 486663.32
N3399 121029.82 486674.50
N737 121103.31 486655.72
N2951 121085.07 486667.78
N797 120962.35 486532.81
N1561 120944.37 486549.73
S14 121548.85 487595.44
N2470 121360.64 487384.78
N1933 121372.48 487374.38
N4191 121874.50 486928.75
N3135 121866.30 486916.70
N156 120465.80 487010.30
N2616 120447.40 487001.00
N3690 121814.14 486533.33
N458 121813.08 486532.60
N2868 121465.45 486871.89
N3640 121329.18 486520.14
N3659 121336.82 486557.13
N3863 121063.20 486121.60
N3734 120522.58 486539.98
N1164 121405.72 487357.70
N1459 121429.39 487338.04
N1714 121585.01 487258.34
N3070 121620.53 487307.33
N1760 121045.06 487165.89
N2727 121040.12 487128.72
N4270 121150.68 487131.64
N2492 121765.47 486615.34
N1380 121766.80 486619.51
N2392 120609.33 486336.17
N4106 120620.58 486344.83
N2877 120585.07 487219.83
N4177 120616.45 487232.77
N3315 121291.45 486293.35
N2242 121295.40 486312.20
N80 121518.19 487234.00
N3014 121504.37 487241.40
N1342 120935.97 486840.62
N1400 120932.84 486840.91
N238 121418.73 486759.09
N3161 120880.20 486099.70
N1835 120643.73 486571.91
N891 120645.64 486573.50
N314 121117.90 486163.10
N4227 121118.60 486165.90
N927 120821.13 487435.33
N211 120819.06 487397.85
N3277 121420.30 486121.60
N3661 121418.80 486121.70
N3831 120842.40 486130.60
N2280 120862.90 486113.80
N3793 121477.71 486795.09
N3969 121486.35 486801.38
N2108 121902.54 487112.61
N686 121888.08 487173.50
N2098 121202.28 487092.30
N2145 120810.49 486621.60
N3665 120831.52 486601.82
N796 121836.45 486686.98
N3041 121835.21 486685.09
N1494 120797.29 487098.87
N4077 121669.43 486441.74
N2 121194.57 487165.65
N4216 121196.29 487146.72
N1308 121307.99 486688.77
N561 121307.90 486685.99
N2609 121753.87 486664.11
N2178 121752.48 486668.50
N2770 120675.16 486751.74
N1649 120679.50 486751.30
N1464 121268.00 486187.70
N2610 121287.11 486273.35
N659 121281.80 486249.90
N1063 120557.19 487186.31
N632 120573.79 487193.59
N2625 121314.60 486221.80
N864 121332.40 486217.70
N477 120757.96 487061.31
N1408 120743.01 487062.25
N2465 121428.46 487441.66
N2758 120693.58 486291.61
N993 120548.87 486773.25
N745 121465.31 487149.83
N3205 121039.32 487168.83
N468 121036.90 487169.12
N1064 121589.50 486930.90
S15 121947.46 487126.61
N274 120869.89 487424.22
N1865 120878.46 487433.11
N4223 120995.10 486232.80
N1838 121533.26 486586.97
N1999 121512.77 486587.50
N3563 121332.62 487133.69
N1620 121326.66 487091.44
N3595 121359.56 487230.65
N2435 121392.82 487223.13
N3832 121826.36 487107.72
N448 121398.95 487249.57
N358 121395.72 487236.57
N870 121529.99 487026.84
N840 121536.12 487037.80
N960 121394.43 487006.82
N3574 121388.60 486974.99
N932 120574.77 486499.71
N3328 120433.80 486656.50
N817 121300.51 487555.57
N2734 121315.19 487559.25
N3090 121470.37 486186.45
N1409 121490.15 486181.82
N322 120504.30 486418.00
N1623 121050.14 487429.34
N1038 121044.50 487404.44
N3513 121556.81 487075.00
N1584 121100.44 487463.31
N1837 121097.90 487464.10
N427 121371.29 486575.14
N1071 121368.00 486209.40
N2892 121384.20 486205.90
S16 121857.60 486868.27
N327 121844.95 486881.65
N32 121095.47 486931.39
N4019 121096.89 486945.45
N2414 121054.96 487427.82
N4283 121057.63 487427.18
N3881 121404.60 486036.90
N4342 121393.80 486039.30
N2656 120447.20 486637.00
N1579 120459.10 486615.50
N1559 120467.10 487057.50
N3726 120460.70 487073.90
N2837 120715.59 486266.18
N1102 121344.88 486757.85
N373 121357.33 486739.67
N2373 121144.00 486018.20
N1624 121164.60 486014.30
N2168 121139.32 487100.80
N3155 121144.21 487114.57
N1138 121571.55 487028.21
N1094 121933.51 486631.11
N2484 121945.81 486637.94
N4231 121059.56 486280.55
N1879 121080.82 486275.68
N83 121610.64 486877.33
N2577 120920.05 487142.53
N638 120922.63 487142.37
S17 121562.18 487529.97
N518 120967.81 487400.46
N909 121761.73 486858.97
N1748 121750.83 486842.84
N321 121760.53 486973.38
N1951 121546.07 487257.24
N2921 121538.47 487247.40
N2613 121204.81 486024.25
N2260 121201.12 486007.47
N65 120441.80 486716.60
N782 121952.54 486863.35
N2032 120614.31 486801.28
N4175 120616.24 486801.17
N1420 121121.40 487522.73
N4319 121756.14 487195.50
N4065 121749.00 487184.13
S18 120395.30 486705.90
N3828 120716.60 486621.55
N3677 121963.51 486909.93
N1889 121683.58 487066.25
N2048 121684.88 487065.38
N1608 121349.54 486557.85
N820 120809.58 487057.64
N2426 121400.61 487362.72
N4198 121278.91 486355.98
N951 121350.63 486708.24
N2690 121365.56 486726.13
N3949 121470.09 486918.65
N1903 121730.00 486352.95
N3306 121589.41 486431.76
N3355 121996.38 486789.05
N1970 122004.50 486788.20
N3848 121415.97 487363.87
N1286 121413.92 487361.39
N1423 120968.58 486794.91
N1177 121775.02 486870.95
N87 121777.08 486869.54
N1866 121587.66 487261.55
N3787 121598.34 487276.55
N2043 120780.94 486126.76
N4363 120795.58 486115.32
N1390 121175.18 487391.05
N1602 121185.97 487419.65
N3992 121799.59 487285.48
N2720 121791.71 487268.32
N1269 121178.12 487003.52
N853 121744.17 486509.42
N215 121743.63 486511.06
N613 121130.49 487236.88
N633 121117.59 487230.22
N2477 120601.01 486892.35
N827 120583.09 486883.05
N842 121455.00 486823.26
N3938 121225.53 486069.53
N2802 121234.22 486110.16
N4097 120953.26 487248.31
N1935 120952.30 487248.30
N2189 121825.09 486938.26
N431 121804.84 486908.45
N3027 121303.21 487219.82
N753 121954.73 486691.64
N878 121936.64 486694.36
N1299 121197.73 487144.84
N2093 121199.11 487126.94
N1332 121189.93 487343.60
N2367 121190.51 487325.42
N4168 121192.37 487148.07
N3239 121158.37 487299.16
N1104 121131.70 487286.58
N2859 120942.36 486153.58
N2069 121990.85 486792.89
N3011 121949.89 486820.76
S19 121208.87 485992.78
N111 121212.92 486010.88
N640 121378.86 487378.09
N591 121307.62 486692.89
N2161 121308.18 486689.59
N4301 121923.50 486971.20
N502 121915.22 486961.47
N2545 121442.75 487079.45
N4089 121438.08 487057.65
N1612 121855.23 486512.84
N2642 121792.51 486493.66
N3572 121016.77 487263.65
N4320 121020.50 487300.58
N3040 120875.18 486741.98
N1962 120889.70 486750.54
N1212 121268.03 486932.74
N2338 121320.19 487220.13
N2422 120717.35 486486.21
N2993 120715.50 486480.90
N3131 120822.95 487469.34
N141 120855.44 487453.30
N3127 120945.67 487144.03
N1123 120945.00 487144.00
N1727 120969.50 486138.90
N3042 120964.20 486138.40
N2074 121405.13 487277.51
N3143 121401.96 487263.08
N3440 121818.89 486638.99
N3123 121820.17 486641.20
N1585 121772.11 487028.85
N3847 121927.50 486623.21
N155 120645.19 486262.93
N248 121482.41 486458.96
N4358 121481.72 486455.91
N2060 121369.80 487306.05
N1953 121408.56 487293.40
N3477 120965.18 487371.16
N3871 120632.06 487159.38
N3617 120629.14 487110.82
N1681 120870.44 486363.90
N573 120868.69 486362.34
N2154 121942.43 486946.30
N138 121963.08 486932.33
N2158 121275.36 486942.61
N2567 121276.40 486945.65
N2147 120772.17 487282.97
N4238 120768.71 487230.50
N1848 121164.19 486766.83
N3428 121155.68 486784.98
N426 121095.00 486199.60
N1133 121120.90 486193.70
N784 121685.72 486211.62
N3696 121120.28 487279.12
N2052 121139.78 487288.25
N2391 121524.74 487054.45
N2438 121515.26 487036.49
N2025 121533.70 486205.78
N1376 121537.35 486205.90
N3974 120914.06 486275.80
N3149 120915.98 486277.52
N2008 121574.89 487300.99
N486 121129.62 487194.90
N2853 121112.46 487191.96
N391 120888.47 486547.67
N3846 120895.25 486543.17
N435 121216.41 486611.16
N4286 121479.11 486602.48
N1301 121462.60 486566.62
N2493 121927.38 487047.91
N4335 121926.68 487045.33
N1249 121692.64 487017.34
N2163 121702.57 487034.76
N3272 120778.57 486290.65
N974 120766.04 486279.34
N1351 121232.46 486117.41
N1766 121232.07 486118.78
N1139 120660.67 487057.01
N2561 121758.82 486594.22
N2469 121758.38 486588.25
N3197 120975.40 486135.60
N172 121310.50 486978.63
N2273 121068.95 487267.88
N3499 121055.75 487275.66
N452 121209.20 486765.10
N1678 121308.10 486938.68
N569 121888.17 486889.85
N3119 121915.86 486870.86
N3071 121434.05 486321.23
N3222 121492.05 486308.07
N3902 121100.50 486163.20
N3959 121074.40 486169.40
N1174 121057.82 486985.85
N1882 120725.06 486612.83
N2240 121389.47 486593.69
N868 120808.06 486502.86
N1619 120791.80 486490.72
N3835 122002.37 486809.82
N2784 121459.71 487010.55
N4281 121455.91 486992.42
N3759 121271.50 486067.70
N3106 121256.10 486071.30
N848 120647.85 486841.48
N2955 120685.24 486838.32
N2474 121602.26 487075.80
N4073 121597.90 487060.64
N2369 121568.92 487133.39
N3608 121571.07 487132.44
N3721 120632.11 486386.28
N1204 120640.08 486392.48
N1454 121140.25 486680.12
N4118 121171.59 486671.51
N1345 121485.83 487129.47
N4059 121483.20 487131.06
N3684 120703.50 486216.50
N1723 120700.36 486226.43
N1413 121576.28 486589.44
N1211 121623.46 486589.13
N1392 121588.90 487096.79
N3570 121200.69 487418.85
N2420 121209.45 487418.54
N1396 120648.59 486560.16
N381 120661.67 486546.37
N1548 120868.17 487276.98
N4360 121536.91 486544.28
N571 121533.41 486553.04
N2873 120822.10 487447.96
N3950 121525.80 486320.03
N829 121526.22 486300.38
N4349 120739.67 486770.16
N3580 120738.27 486745.96
N1349 120467.10 486730.30
N2759 121699.83 486593.12
N3647 121725.19 486591.29
N691 121052.90 486174.70
N3035 121037.60 486178.00
N1682 121330.40 487277.91
N726 121329.69 487257.64
N1588 121164.03 487364.33
N2180 121626.20 487362.39
N333 121671.81 486456.49
N171 120610.39 486401.61
N3158 120508.79 486957.42
N3694 120503.37 486970.55
N219 121176.10 487286.15
N2646 121176.67 487270.43
N2695 121571.25 487203.75
N2815 121223.68 487064.89
N3705 120623.27 486393.38
N1175 120614.71 486404.80
N1296 121094.59 486932.85
N430 121340.26 486573.41
N803 121348.22 486489.00
N3252 121347.74 486486.91
N2540 120810.60 486675.92
N865 120820.84 486681.86
N3079 120636.67 486653.58
N2712 120639.40 486701.94
N1460 121161.20 487196.26
N514 121159.22 487182.56
N3243 121197.86 487127.67
N901 121185.96 487126.43
N2755 120927.09 486593.44
N3730 121214.91 487095.12
N1359 121787.59 486896.47
N3736 121780.80 486886.44
N1632 120610.42 487027.29
N4250 121260.01 486600.66
N4324 120496.50 486985.80
N332 120449.70 486961.30
N1657 121655.20 487424.30
N3005 121772.79 486638.39
N3701 121207.84 486902.23
N3282 121206.28 486908.23
N372 121509.13 487159.37
S20 121985.72 487022.09
N1668 121945.24 486994.60
N68 121867.58 487018.63
N2578 121863.43 487040.75
N2880 121171.20 486953.94
N3605 121164.98 486953.99
N2037 121420.67 487314.07
N4180 120454.10 486581.40
N2580 120441.60 486577.00
N608 121087.08 486781.49
N673 121076.58 486794.78
N3334 121362.61 487435.71
N1921 121378.39 487424.50
N101 121279.13 487297.41
N3717 121278.09 487259.11
N1661 121508.16 486609.13
N1070 121464.13 486630.31
N96 121043.19 486890.87
N2612 121205.77 486934.88
N973 121216.15 486967.22
N705 121611.85 486118.89
S21 121652.86 486130.32
N3927 121623.60 487218.38
N1151 120565.03 486781.54
N64 121064.21 486811.10
N620 121545.35 486846.95
N3947 120840.10 486165.00
N879 120838.60 486163.20
N2505 121049.27 486943.77
N3566 121045.84 486910.47
N1253 121320.72 486971.81
N1031 121189.70 486637.00
N1614 121100.79 487191.71
N4240 121105.09 487226.09
N227 121352.30 486213.20
N3853 120776.93 487369.75
N2794 120781.83 487447.77
N2988 121326.37 487220.89
N1655 120670.22 487208.31
N2396 120671.19 487222.82
N2291 121605.37 486608.19
N3438 121605.51 486612.93
N522 121723.20 486943.30
N1260 121725.51 486942.06
N3651 120700.80 486189.60
N3444 120695.10 486186.40
N3369 120899.97 486542.84
N4138 120901.46 486544.40
N2714 120613.49 486787.58
N2167 120615.82 486787.44
N2673 121255.30 486198.30
N2527 121258.89 486197.55
N2087 121064.21 486841.69
N298 121592.11 486683.55
N3527 121598.33 486684.28
N1272 120942.40 486544.98
N2791 120940.68 486543.25
N925 121690.58 486462.11
N757 121657.71 486504.15
N1807 121649.36 486540.41
N4338 120765.68 487183.20
N4156 121477.86 486678.73
N617 121466.75 486636.26
N709 121591.26 487165.73
N4329 121593.25 487164.42
N3454 121249.55 486908.53
N2889 121643.59 487440.75
N444 121659.06 487433.92
N4293 121045.07 486895.41
N1950 121381.71 487377.43
N1257 121690.60 486851.54
N3874 121680.49 486834.25
N1517 121801.58 487194.55
N183 120641.67 486640.26
N1527 121072.11 487497.83
N3556 121074.26 487497.32
N674 121334.61 486704.69
N1910 121365.84 487346.85
N1757 121374.28 487364.54
N550 120915.11 487067.28
N3558 120917.73 487067.12
N1132 121852.98 487174.31
N4012 121856.45 487129.99
N2445 121295.09 486745.34
N2555 121335.28 486712.56
N2047 121824.19 486961.27
N166 121822.60 486959.48
N1118 120790.19 486495.54
N2766 121330.47 486774.71
N515 121328.70 486773.40
N2924 121734.92 487160.12
N3054 121686.98 486300.64
N1780 121861.30 486494.10
N2831 120496.70 486493.80
N3611 121020.07 487004.01
N3490 121112.03 487332.55
N1115 121116.01 487354.41
N750 121445.27 486115.53
N1515 121444.70 486113.00
N2760 121067.32 486862.47
N693 121228.30 486133.50
N225 120762.38 487133.91
N2692 120758.77 487075.18
N3246 121771.95 487032.08
N3767 121781.95 487048.31
N1007 121452.81 487118.57
N3578 121270.28 486943.94
N44 121736.60 486476.95
N1145 121487.96 486876.95
N2931 121438.17 486623.54
S22 121238.88 487620.69
N1036 121056.22 486883.47
N3474 121051.21 486893.17
N3850 120843.16 486535.63
N1158 120857.48 486546.03
N2418 121386.60 486017.20
S23 121381.20 485995.60
N4133 120844.86 486695.49
N501 120843.13 486698.80
N3945 121290.99 487508.66
N4135 121263.60 486234.70
N4145 121271.76 486325.85
N3356 121547.00 487058.03
N2165 121195.52 487283.29
N900 121195.53 487270.62
N1839 121625.01 486614.40
N2202 121625.92 486628.22
N766 121345.88 487084.92
N1011 121341.65 487085.55
N3603 121366.92 487308.44
N266 121401.75 487296.79
N2660 120664.66 486272.94
N3451 120682.20 486232.40
N2929 120973.40 486136.40
N4014 121956.57 486935.50
N1270 121952.31 486929.68
N470 121608.26 487290.11
N2922 121616.58 487301.73
N2678 121428.47 487443.51
N4011 121760.45 487340.49
N3190 121763.21 487348.43
N590 121003.30 487153.41
S24 121994.03 486552.57
N1480 121175.63 487519.17
N1983 121191.94 487542.72
N1130 121504.05 486979.85
N3295 121513.14 486995.94
N2724 121635.53 487374.45
N1738 121116.39 487006.40
N783 121128.57 487038.04
S25 121444.10 486027.50
N3310 121430.70 486030.50
N2395 121534.14 486605.37
N3882 120947.73 487133.57
N2295 121845.79 486888.66
N2142 121844.99 486884.96
N3535 120546.89 487012.65
N546 120574.76 486876.10
N2644 120575.79 486874.12
N3594 121481.78 486808.24
N299 121860.10 486671.58
N1169 121858.87 486669.69
N1191 121501.84 486678.75
N2379 121592.70 486113.23
N790 121590.23 486125.31
N1265 120672.12 486381.85
N3170 120939.91 486155.97
N3189 121582.48 486826.32
N3748 121627.13 486642.25
N1307 120536.50 486547.72
N509 121221.33 487474.24
N906 120702.20 486213.20
N2927 120693.70 486203.50
N114 121187.10 486009.90
N2979 120803.07 487183.81
N31 120804.36 487202.52
N2100 121166.53 487328.30
N3386 121169.90 487309.20
N108 121206.80 486173.90
N2461 121223.70 486170.00
N1112 121530.66 486189.23
N3922 121347.56 487379.93
N2149 121339.51 487384.66
N1322 121171.80 486621.45
N577 121181.29 486619.43
N2650 121659.26 487034.99
N2054 121658.23 487035.41
N3781 121164.72 487080.79
N1141 120775.91 486338.55
N4235 121127.26 486876.64
N4007 121106.43 486869.51
N781 121159.11 486385.24
N2135 120774.54 487326.73
S26 121771.59 487372.64
N536 121767.05 487359.48
N1875 120439.40 486807.80
S27 120417.90 486650.00
N593 120431.80 486615.00
N4075 121437.20 487302.77
N805 121491.65 487272.65
N366 121411.93 486442.17
N374 121407.68 486444.01
N3023 120576.36 487216.24
N525 121735.53 487353.34
N2139 121733.24 487358.28
N4294 120914.01 487132.68
N3554 121650.13 487236.22
N1201 121640.56 487221.98
N2700 120607.57 486587.99
N3156 120592.19 486579.42
N1205 120634.77 486430.82
N2323 121439.18 487481.89
N1817 121432.30 487486.40
N2711 120712.57 486429.75
N3385 120722.54 486437.49
N1475 121036.15 487097.31
N3508 121901.63 487114.02
N2740 121654.47 487390.82
N581 121656.58 487389.13
N2105 121729.52 486919.34
N497 121719.89 486903.09
N3775 120711.62 486225.18
N1002 120756.94 486290.41
N3914 121231.41 486782.80
N4183 120581.19 486713.08
N4015 120600.40 486723.40
N1857 121392.87 487567.79
N2122 121412.45 487562.41
N955 120450.90 486578.90
N2049 120483.90 486591.70
N1509 121649.35 486819.51
N1934 120638.54 487198.18
N624 120641.07 487198.03
N4262 121205.36 487433.44
N4291 120522.78 486924.16
N48 120541.79 486877.64
N4147 121220.68 486047.63
N480 121217.23 486048.47
N3719 120896.32 487417.52
N772 120778.80 487281.47
N474 121676.18 487297.71
N2488 121686.43 487313.03
N1739 121393.60 487400.58
N3754 121377.81 487383.15
N2253 121402.03 486939.18
N2425 121402.21 486937.09
N3522 121052.28 487275.73
N4323 121009.00 486488.24
N3099 120994.28 486502.09
N1483 121219.00 486864.64
N2513 121212.00 486886.50
N1358 120892.22 486789.23
N2635 120894.19 486825.29
N2128 121785.24 487253.55
N2863 120627.89 487031.78
N1121 121439.31 487333.80
N3795 121470.62 487368.00
N3293 121916.18 486954.30
N382 121934.98 486941.19
N123 121706.56 486885.71
N1300 121704.49 486886.91
N794 121943.56 487062.67
N451 121928.25 487052.07
N3604 121641.94 486691.28
N584 121640.14 486682.73
N1440 120428.00 486629.00
N3285 120432.90 486616.40
N2464 120610.05 486803.96
N1581 120622.35 487008.80
N664 120621.21 486993.21
N916 120663.38 486466.24
N880 121283.10 486992.61
N213 121276.65 486969.20
N184 121587.29 487305.74
N1217 121589.10 487304.38
N2166 120600.75 486651.54
N1653 120619.57 486600.00
N47 121177.00 487256.38
N4361 121177.60 487233.88
N3464 121956.65 486667.12
N3086 121969.36 486683.47
N3783 121011.05 486906.21
N666 121441.88 487210.17
N105 121459.77 487204.53
N2818 121072.49 487349.71
N3484 121069.67 487350.12
N893 120826.87 487431.63
N2717 121296.99 486856.19
N2331 121283.52 486850.03
N1294 120605.45 486800.92
N4130 120595.61 486337.97
N4107 120608.17 486335.52
N533 120807.47 486316.79
N3673 121190.79 487270.30
N2687 121191.87 487247.46
N667 121706.57 487343.12
N466 121716.12 487357.22
N3103 120444.20 486676.30
N4196 120441.90 486675.30
N788 121241.60 485999.00
N1230 120481.70 487023.40
N150 120490.40 487002.40
N4071 121919.53 487068.45
N2153 121923.20 487059.86
N2351 120506.48 486674.27
N2548 120526.37 486684.35
N892 121159.83 486624.00
N846 121149.00 486627.27
N2121 121331.21 487389.90
N2504 121313.30 487400.92
N4201 121280.67 486312.19
N867 121289.00 486063.60
N185 121513.75 487363.42
N401 121499.91 487370.44
N3406 120655.92 486558.36
N1185 120657.81 486560.00
N743 120884.75 486349.44
N2405 121115.08 487005.79
N699 120569.09 486537.99
N3537 120585.43 486547.28
N2970 121707.88 487173.77
N2343 121717.30 487068.33
N1788 121715.20 487069.57
N1232 121353.55 486780.75
N1556 121355.23 486782.00
N84 120520.83 486510.48
N643 120675.37 487289.14
N2716 121200.14 487110.56
N4154 121863.13 486955.58
N1404 121870.61 486963.99
N2311 121193.57 486960.39
N4322 121074.24 487013.44
N2648 121483.57 486107.48
N1963 121212.50 486759.80
N1992 121034.01 487359.66
N1183 121564.61 487337.15
N1105 121477.14 486932.94
N2116 121788.03 486950.30
N4064 121617.99 486988.28
N2066 121052.00 486071.30
N2402 121852.03 487168.39
N527 121196.75 487206.76
N2227 121197.09 487190.14
N1436 120968.56 486879.58
N143 121200.30 486781.62
N3459 121960.02 486645.21
N1539 121779.88 487033.53
N214 121631.96 486652.34
N1068 121633.53 486683.43
N1291 121374.72 487270.24
S28 120390.00 486910.30
N1843 120425.00 486929.30
N4193 121828.00 487249.11
N312 120485.30 487066.00
N3851 120506.86 487076.67
N557 121242.08 486605.03
N4317 121059.46 486673.53
N13 121287.20 486280.20
N1750 121228.85 487099.02
N4100 120908.19 487400.49
N317 121741.77 486760.43
N41 121739.39 486762.04
N2175 120955.20 486071.10
N4313 120953.60 486069.30
N877 121588.79 487131.99
N3433 121597.00 487146.07
N1136 121170.54 487201.84
N1142 120653.31 486402.92
N3227 120669.71 486383.15
N668 121606.73 487193.24
N4307 121609.12 487192.81
N3816 120481.60 486679.90
N2686 120451.50 486665.00
N4079 121878.35 486659.61
N1313 121877.15 486657.78
N3368 121926.58 486622.99
N2489 121397.60 486202.70
N3727 121412.30 486199.50
N2676 121653.04 487234.50
N616 121759.95 486909.24
N708 121490.13 486268.28
N1785 120808.39 487261.41
N1061 121446.10 486120.30
N3979 121445.40 486116.10
N2528 121899.37 487074.10
N2789 121900.11 487076.28
N3044 121547.56 486763.38
N935 121553.90 486760.44
N2665 121610.84 487351.25
N676 121602.50 487355.38
N1262 121525.25 486867.85
N943 120662.55 487082.37
N344 120944.22 487068.77
N175 121235.50 486241.10
N3480 121374.91 487378.22
N2813 120716.40 486537.89
N2699 120736.76 486516.10
N3745 121063.84 486809.53
N2057 121059.58 486821.49
N787 120796.69 486404.49
N913 120798.39 486406.00
N1810 121687.09 487391.58
N723 121675.98 487377.99
N2907 121255.90 487527.21
N318 121248.52 487514.83
N1812 121554.01 487342.78
N2658 121299.28 487320.31
N3423 121283.17 487321.52
N3870 120967.90 486630.60
N1244 121106.62 487488.09
N3869 121104.74 487488.60
N1980 121655.99 486756.04
N1868 121655.60 486753.63
N2320 120916.68 486520.98
N881 120959.57 486480.33
N910 121246.96 486624.41
N1863 121250.19 486638.76
N2960 121358.34 487568.97
N4066 121843.82 486544.43
N1638 121838.01 486567.85
N1969 121539.28 487241.51
N4165 121541.11 487240.14
N1357 121390.40 486575.19
N2237 121336.50 486869.66
N2774 121300.93 486857.31
N46 120941.15 487012.55
N3278 120939.99 486991.89
N1636 121695.78 486637.57
N1076 121699.06 486655.54
N1425 121309.13 487455.03
N872 121310.00 487465.32
N2949 120791.69 487017.06
N462 121237.02 487248.25
N3933 121254.39 487253.86
N3164 120672.45 487245.38
N2335 120745.41 486861.11
N2458 120743.85 486836.89
N1088 121275.02 487179.61
N2471 120499.80 486582.80
N3804 121412.71 486756.59
N3339 121378.10 486042.90
N1100 121480.72 486075.73
N3418 121380.41 486449.24
N4233 121400.60 486444.66
N2645 120759.52 486979.23
N661 121522.47 486540.32
N3501 121166.00 486645.70
N4085 121171.79 486664.55
N367 120501.03 486748.21
N692 120520.79 486758.54
N940 121675.13 486756.88
N4179 121656.75 486760.34
N4218 121352.01 487028.99
N562 121903.67 486646.27
N725 121892.58 486653.15
N1178 121346.04 486849.66
N2490 121010.54 487538.11
N1220 121008.05 487539.56
N1873 121263.29 486931.60
N520 121369.50 487010.54
N3680 120954.94 487244.91
N1886 120683.99 486365.57
N2347 120667.86 486353.36
N3636 121712.64 487052.00
N930 121322.26 487396.40
N2589 121607.66 487405.41
N1899 121588.31 487414.72
N3532 120954.17 487231.61
N3961 121698.77 487302.93
N2063 121696.39 487304.56
N2258 120568.61 486358.72
N3153 121827.75 487250.70
N3270 121810.86 487222.05
N2742 120776.84 486745.64
N3463 120783.57 486717.92
N3857 121679.68 486421.24
N4206 121684.09 486402.64
N2067 121179.53 487205.75
N3198 121179.64 487202.32
N2846 120784.87 486912.50
N93 120781.67 486912.44
S29 121621.52 486083.82
N3338 121670.63 486817.22
N2176 121660.18 486798.73
N3129 120691.30 486365.03
N1516 120613.01 486455.71
N2374 120625.04 486441.61
N1758 121110.15 487274.78
N0 121449.89 486898.16
N1994 121213.18 487458.31
N2124 121208.19 487437.85
N2312 121699.55 486867.88
N3657 121091.64 486690.71
N126 121631.57 486556.93
N124 121614.30 486553.22
N1629 121083.65 487072.18
N2337 121706.46 486217.86
N3226 121721.23 486222.03
N2051 121594.08 487320.97
N755 121646.78 487040.29
N2164 120676.31 486581.03
N4087 120903.99 486908.88
N162 120899.42 486909.15
N3184 121314.40 487006.00
N38 120974.09 486514.70
N2078 120972.44 486513.02
N2860 121753.08 486776.85
N2919 121750.71 486778.47
N4101 120635.20 487209.18
N3142 121822.17 486965.96
N2194 121923.84 487141.08
S30 121914.94 487164.82
N1371 121075.19 486869.66
N319 121559.43 487159.07
N1218 121695.55 486993.44
N1591 121681.11 486998.03
N2812 121915.03 486965.83
N3115 121932.62 486951.70
N2315 120611.80 486521.88
N254 120594.74 486541.06
N3050 120842.95 486699.12
N489 120841.83 486701.05
N585 121435.32 487278.18
N988 121417.55 487288.05
N873 120608.46 487027.67
N3533 120613.30 487029.54
N1900 121081.06 486889.84
N3341 121648.00 486603.14
N3401 121983.36 486918.45
N4298 121154.89 486258.77
N257 121173.21 486254.48
N1391 121432.54 486767.47
N2079 120969.09 486360.30
N920 121575.07 486671.49
N3244 121683.61 487285.30
N106 121679.03 487277.55
N3516 121929.85 486954.69
N1005 121682.64 487433.90
N1385 121486.90 486949.99
N1452 121495.54 486965.23
N2421 120556.87 486463.25
N2985 120589.21 486863.55
N3134 120548.28 486842.78
N1537 121226.99 486905.85
N2874 121870.21 486398.12
N2143 121842.88 486389.55
N1543 121014.80 486127.90
N579 121248.30 486166.90
N425 121979.72 486912.64
N3674 121977.55 486900.52
N1279 121533.62 486448.33
N1706 121533.06 486445.04
N1228 120701.49 486554.11
N3207 120785.70 486208.40
N1916 120784.20 486206.60
N119 121069.95 487342.57
N2811 121067.37 487343.24
N3628 121167.99 486937.72
N1552 121144.86 486734.79
N1687 121129.85 486726.83
N2104 121374.35 487037.73
N3932 120676.03 487382.83
N2319 121925.47 486649.17
N3076 121903.99 486647.34
N2265 121079.33 486887.98
N411 121076.30 486882.66
N1791 120606.48 486401.05
N3413 121097.10 486062.30
N193 120832.97 486144.29
N962 120833.28 486144.53
N1248 121623.63 487311.62
N3469 121634.08 487324.82
N628 121542.98 486765.94
N1020 121540.97 486767.06
N4264 121758.54 487131.00
N1897 121767.42 487146.09
N3163 120665.42 486275.40
N1215 121345.37 486603.57
N3623 121956.91 486650.94
N1987 120658.28 487021.07
N984 120654.71 486961.15
N1235 120611.11 486819.89
N3159 121544.64 486890.14
N4032 121410.51 487476.84
N2039 121422.24 487473.40
N2268 121043.90 486035.90
N90 120931.50 486138.80
N3388 121187.11 487125.34
N3788 121189.08 487133.67
N127 121191.07 486617.30
N3452 121391.90 486039.70
N35 120776.11 486654.92
N2350 121828.07 487006.50
N3 121822.25 486998.47
N1895 121727.31 487147.40
N1605 121718.43 487132.76
N3003 120803.10 486162.60
N3776 120817.50 486151.20
N1997 121175.85 486341.67
N731 121231.25 486328.99
N1577 121198.98 486376.18
N1107 120942.18 487030.64
N1261 120764.46 487058.73
N3610 121791.24 486967.68
N2655 121792.04 486970.08
N605 121173.29 487389.47
N1643 121183.94 487417.75
N1369 121369.75 486483.87
N1078 121369.28 486481.69
N331 121269.94 487550.46
N999 121547.54 487316.38
N4310 121538.05 487322.16
N2997 120851.09 486253.88
N1690 120886.70 486213.70
N1708 121566.24 487283.35
N570 121353.10 487177.19
N971 121349.62 487156.59
N3124 120601.69 486555.68
N2575 120589.44 486549.58
N419 121702.78 487314.06
N2808 121482.63 487380.04
N2290 121382.43 487091.73
N1223 121749.92 486672.00
N2981 121472.59 486272.46
N1077 121451.13 486277.24
N1435 121185.40 486888.75
N1399 121593.86 486183.90
S31 120785.80 487504.09
N3225 121557.53 486130.30
N1330 121557.72 486150.93
N4213 121533.99 486859.56
N3498 121040.10 486020.40
N3977 121040.45 486021.66
N383 121645.47 487387.21
N3766 121334.49 487146.16
N3555 121395.00 486053.90
N3925 121052.64 487277.19
N1829 120419.20 486797.60
N4067 121090.32 486704.09
N1737 121082.59 486700.16
N4314 120828.20 486174.20
N3518 120826.80 486172.40
N1677 121064.63 487300.29
N3468 121075.26 487348.64
N449 121198.63 487165.03
N1648 121366.42 487486.36
N4134 121828.66 487010.71
N3422 121819.93 486632.09
N2073 120550.40 487205.54
N3841 121072.79 486853.07
N2685 121576.02 487290.40
N1487 121577.86 487289.01
N59 121288.56 487491.00
N3186 121404.65 487478.56
N1795 120789.78 486300.91
N657 121133.33 487546.53
N2390 121131.26 487547.92
N3663 121807.12 486845.07
N3053 121804.94 486846.55
N2916 121943.23 486673.19
N244 121925.91 486648.08
N236 121173.28 486669.93
N3009 121195.50 486663.80
N212 120989.10 486189.40
N4161 120946.74 486846.21
N3380 121014.70 486236.00
N1536 121777.00 486616.10
N4068 121267.22 487414.01
N1562 121292.90 487411.31
S32 121963.23 487076.76
N1792 120559.62 487001.15
N3128 121192.89 486798.24
N1842 121604.22 487082.05
N1128 120844.65 486643.86
N1001 121813.50 486977.80
N3993 121831.51 486957.69
N4225 120905.01 486908.81
N2891 120906.92 486908.69
N801 121615.29 487177.58
N1715 121622.84 487190.42
N148 121700.12 486767.78
N1045 120679.06 486604.76
N2286 120677.87 486606.77
N3845 120504.85 486819.80
N4308 120515.70 486799.78
N2398 121060.20 486942.79
N437 121069.19 486986.37
N2958 121509.49 486421.07
N1030 121954.31 486689.40
N4300 121935.50 486693.16
N1277 120939.40 486602.84
N2322 120954.78 486614.64
N3980 121272.96 486956.15
N2939 121107.51 487487.85
N3686 120826.00 486417.58
N3479 120582.68 486296.71
N2401 121499.64 486620.48
S33 121036.20 486012.50
N3485 120676.52 487309.21
N3461 121533.12 486634.74
N2543 121539.85 486635.36
N2726 120459.40 486647.90
N429 120467.00 486652.10
N1266 120982.37 486641.84
N1642 121589.21 486996.51
N1210 120937.90 486244.90
N810 120473.80 487042.20
N3569 121226.29 486846.20
N3331 121638.24 487390.66
N3249 121075.51 487527.08
N263 121102.67 487567.05
N623 120477.10 486684.30
N4125 121044.82 486609.66
N475 121020.76 486632.65
N3393 120450.80 486791.60
N3995 120483.10 486808.50
N1120 121575.68 486665.62
N246 121555.20 486861.28
N3883 120635.09 486575.47
N3906 120624.72 486570.80
N3064 121690.47 486599.47
S34 121196.97 485987.88
N3877 121692.90 487299.69
N2971 121576.98 487420.22
N1862 121214.48 487287.74
N2719 121289.49 486938.66
N1914 120983.56 487491.18
N3324 120980.99 487492.66
N207 120467.80 486586.50
N3890 121652.35 487262.79
N2737 121661.89 487276.28
N63 120651.47 486959.93
N812 120649.29 486960.07
N3061 120785.16 486892.48
N2114 121108.70 487016.36
N406 121441.84 486683.66
N1640 121455.42 486681.89
N1495 121607.30 486620.30
N2581 121256.80 486202.10
N99 121260.30 486218.20
N896 121834.97 487080.72
N2510 121443.29 487485.61
N530 121438.08 487478.63
N273 121018.94 487004.16
N3095 121016.96 487004.43
N3378 121269.57 487558.69
N1006 121271.99 487557.39
N1056 120609.53 486777.77
N4328 120608.09 486757.85
N2911 121945.77 486850.92
N3220 121968.14 486884.20
N3462 121714.56 487008.99
N4287 121714.01 487007.11
N2611 120778.18 486128.76
N4025 121028.78 487037.24
N886 121038.43 487037.75
N1250 121158.29 487181.88
N2517 121890.53 486650.02
N3660 120872.80 486067.70
N3955 121640.29 486929.33
N4169 121629.75 486910.93
N3652 120783.35 486855.61
N4176 121566.76 486604.71
N1334 121578.97 486464.98
N3693 121404.30 486093.10
N4162 121424.20 486088.60
N1156 121817.70 486536.27
N3108 121307.29 487283.46
N1874 121301.65 487295.05
N1719 121318.27 487175.80
N3712 121325.38 487201.03
N224 121026.90 486427.20
N3972 121268.28 486195.60
N4226 121133.35 486841.45
N2218 121046.93 486658.27
N1434 121267.70 486892.75
N798 121274.60 486871.53
N720 121178.37 487210.94
N4280 121095.16 486889.88
N1298 120929.66 487355.23
N866 120933.80 487355.16
N1618 121847.84 487075.21
N1606 121863.60 487054.80
N60 121052.28 487218.71
N1181 121323.59 486913.40
N3364 121323.36 486903.13
N356 120826.90 486366.08
N16 120842.09 486349.05
N1403 121075.20 486173.40
N2456 121075.80 486176.10
N3858 120595.15 487202.75
N4027 120614.65 487210.94
N2534 120813.67 486706.70
N1029 120823.75 486712.42
N1469 121909.68 487003.72
N1419 121481.60 486882.60
N4210 121588.25 487389.88
N50 121569.50 487398.91
N3646 121044.82 486982.26
N343 121928.76 487130.61
N3861 121908.44 487114.92
N3058 120673.25 487309.50
N1293 121073.34 487349.38
N1775 121601.05 486993.09
N1057 120703.32 486898.51
N626 121108.86 487346.86
N975 121098.43 487271.06
N1072 121092.79 487058.37
N677 121112.05 487064.13
N946 121839.91 486954.22
N1326 120711.73 486195.27
N1948 121093.58 486901.37
N3290 121857.49 486950.51
N636 121048.02 486284.00
N4061 121369.81 486758.69
N4026 121371.40 486759.97
N22 121582.85 487065.53
N4228 121569.18 487069.94
N2044 121601.56 487355.38
N1472 121127.70 486157.00
N2497 120729.37 486472.99
N1634 121057.44 487267.10
N928 121493.12 486804.41
N2559 121513.66 486817.00
N1344 120954.00 486125.80
N3966 120945.00 486109.70
N277 121046.07 487430.19
S35 122002.92 486894.60
N2865 121474.44 486686.63
N4211 121802.20 487291.19
N3778 121725.80 487260.30
N2075 121745.40 487249.50
N2851 120692.53 486684.59
N948 121272.80 487490.10
N3353 120785.60 486176.60
N461 120931.18 486767.65
N1074 121873.69 486454.02
N4346 121889.04 486403.80
N2842 121248.57 486796.57
N4214 121259.66 486781.52
N2406 120600.90 486469.80
N2672 121687.76 487282.76
N1189 120667.66 486459.67
N1996 120649.54 486479.78
N2697 121428.52 486647.21
N2434 120914.05 486315.86
N2633 120912.28 486314.26
N2466 120763.37 486440.09
N839 120765.13 486441.59
N2103 121283.69 487103.12
N1457 121871.99 486965.44
N1566 121544.66 486919.15
N3866 121555.07 486917.03
N3080 120936.30 486094.70
N2674 120952.20 486091.40
N2424 121010.35 487211.87
N170 121006.62 487181.02
N72 121314.73 487176.69
N1 121297.51 487177.65
N3639 120886.61 486101.12
N315 120887.38 486101.88
N1729 121432.12 486287.07
N168 120484.10 486662.30
N396 120441.00 486575.50
N1998 120902.05 486947.47
N1069 120937.13 486945.48
N1468 121653.63 487349.22
N2326 121664.67 487363.19
N4341 120928.62 487335.11
N1103 121394.49 486663.57
N2643 121455.07 486781.31
N3167 120750.52 486369.27
N3118 121304.41 487482.20
N500 121663.28 486973.70
N1532 121660.40 486975.39
N3276 121198.52 487192.52
N1241 121092.75 487434.73
N513 121090.16 487435.44
N2480 121439.01 486685.88
N969 121291.37 486820.44
N2509 121430.08 487018.53
N2210 121703.58 487166.11
N3387 121605.90 487161.94
N912 120632.30 486316.44
N811 121680.48 487176.96
N688 121798.80 487286.99
N2220 121398.14 486477.59
N3989 121397.69 486475.46
N1327 121525.04 487230.44
N1689 121673.63 487374.90
N519 121838.16 486690.21
N3599 121211.29 486702.68
N3330 121154.18 486716.39
N1904 121693.57 486617.78
N1363 120708.00 487220.14
N3046 121354.42 487439.90
N978 120788.64 486486.66
N3265 120706.73 487064.92
S36 121244.89 487610.36
N2259 121681.58 486752.04
N1381 121681.18 486749.49
N2041 121627.17 486652.19
N1503 121626.13 486640.17
N3504 121268.80 486060.50
N771 120913.55 486417.30
N2870 120931.03 486399.88
N3063 121139.17 487516.91
N1162 121329.08 486888.32
N1966 121688.04 486385.02
N1374 121693.90 486360.39
N2773 120610.44 486400.26
N2957 121544.94 486454.89
N385 121467.35 487048.80
N3746 121470.95 487067.45
N3152 121060.60 486820.91
N1379 121823.54 486869.25
N3862 121821.31 486870.76
N1557 120830.18 486337.94
N2159 121745.27 486509.89
N3699 121744.72 486511.38
N3066 121483.33 487532.97
N2670 121469.88 487518.21
N1348 120613.46 486858.63
N1073 120586.45 487201.36
N1295 120585.47 487203.71
N202 121082.57 486624.00
N554 121068.67 486637.29
N648 121405.62 487166.36
N3121 121551.05 486679.92
N769 121292.65 487501.52
N1442 120685.04 486414.56
N2009 120576.41 487289.34
N2568 121629.99 486608.64
N582 120607.57 486696.26
N1004 121166.88 486931.94
N1315 121028.33 487568.65
N10 121284.85 486891.34
N3256 121764.28 487306.77
N2020 121716.94 487329.56
N1290 121615.05 487138.69
N775 121389.64 486790.88
N1803 121706.23 487049.55
N622 121704.12 487050.80
N2966 120688.95 486567.61
N1567 120993.60 487078.48
N1079 120988.97 487043.69
N4166 121448.57 486470.16
N619 121504.36 486457.24
N1209 120885.49 486306.94
N1203 120887.37 486308.62
N3475 121460.06 487249.14
N2254 121466.29 487245.95
N3136 120685.26 486633.50
N1733 120667.75 486623.63
N9 121654.39 486795.06
N1718 121652.18 486796.32
N3565 121351.86 487379.17
N1388 121338.33 487493.55
N779 121504.46 487061.63
N1346 121479.16 487067.90
N375 121315.33 486693.05
N1859 121742.56 486823.43
N4171 121744.63 486822.02
N1065 120738.91 486731.90
N1960 120742.62 486711.72
N890 121008.67 487437.77
N850 120959.51 486265.82
N3139 120957.85 486264.27
N822 120642.47 486753.51
S37 120479.70 487153.75
N2113 121239.71 486814.98
N3635 121535.52 486611.36
N1824 121710.16 486886.22
N3573 121594.74 486654.69
N3682 121641.92 486292.44
N4340 121641.34 486294.34
N3084 120866.21 486328.09
N350 120868.00 486329.74
N564 121393.20 487224.99
N2862 120817.46 486890.43
N1569 121935.73 486630.67
N1258 121352.71 487377.97
N235 121067.37 487265.59
N3939 121078.56 487267.68
N276 121515.55 487217.79
N1721 120621.81 486924.37
N2769 120623.98 486924.24
N1239 120850.61 486385.34
N428 120848.81 486383.82
N2302 121289.49 487016.23
N1541 120921.57 486262.75
N1674 121458.92 486555.33
N3923 121847.54 487240.81
N3297 120917.77 487105.82
N2313 120920.36 487105.65
N3774 121041.10 486776.66
N4184 121069.53 486741.85
N2271 121795.61 486713.50
N2935 121794.47 486711.74
N3614 120627.43 487085.25
N992 121617.62 486191.00
N1589 121432.22 487335.79
N3391 120638.08 487254.14
N3536 120639.52 487285.68
N1035 121032.33 486627.08
N2016 121033.89 486628.71
N3813 121047.78 486842.41
N3082 121041.75 486840.54
N1370 120550.50 486382.99
N4069 120550.58 486385.75
N1840 121075.54 487095.73
N2952 121261.72 486361.58
N2336 120724.95 486326.87
N1196 121164.57 487340.96
N915 121023.90 486017.20
S38 121022.40 486015.20
N390 120613.08 486591.34
N19 120610.24 486589.62
N4256 121742.61 486511.40
N2221 121099.54 486887.81
N2297 121731.49 486868.36
N2515 121028.07 487568.80
N4081 121026.16 487569.88
N1040 121428.67 486685.47
N242 121225.84 487417.69
N1479 120779.63 486797.99
N596 120625.38 487059.93
N2495 121486.84 487250.57
N3733 121665.82 487282.58
N843 120485.50 486739.90
N296 120486.50 486461.80
N2845 120526.56 486409.38
N1225 120719.44 486440.94
N113 121298.20 486468.40
N2944 121230.63 486483.95
N2230 121417.33 486899.10
N3448 121417.54 486892.24
N998 120460.70 486799.60
N2468 120459.50 486801.90
N563 121039.45 486835.98
N2599 121038.63 486835.35
N2357 121480.35 486550.35
N2579 120637.73 487247.46
N956 121327.03 486461.87
N1798 121385.93 487185.06
N980 121389.34 486571.06
N4365 121156.50 486740.89
N758 120564.30 486853.28
N1347 120563.17 486855.36
N2377 121386.10 486097.30
N3436 120656.44 486366.24
S39 122021.33 486685.07
N3332 121710.60 486268.38
N3122 121629.62 487170.86
N3524 121669.35 487154.16
N1186 121315.17 486308.27
N2798 121236.90 486169.80
N3800 121314.83 486402.82
N129 121302.96 486350.60
N4094 121545.27 486418.31
N324 121108.28 487490.32
N2188 121105.51 487491.08
N2427 121280.11 486355.69
N308 121358.38 487326.01
N615 121136.83 486680.20
N3749 121056.44 486895.62
N1106 121383.99 487482.96
N1412 121375.36 487484.51
N2825 120838.92 486721.26
N3672 120895.64 486724.39
N1631 121963.71 486703.11
N1187 121961.61 486721.17
N3230 121037.53 486844.08
N1497 120613.55 486562.23
N82 121457.21 487502.95
N2462 121235.83 486692.71
N1836 121235.34 486690.63
N3416 120962.80 486070.10
N964 121045.69 487219.49
N1774 121342.65 486525.91
N1977 121554.27 486779.03
N2364 121548.79 486769.34
N2788 121625.69 487437.93
N947 121634.77 487433.70
N814 121697.76 487210.13
N3895 121165.69 486504.42
N908 121166.36 486505.73
N1845 121240.67 487501.16
N1920 121571.22 486809.50
N2847 121562.39 486793.66
N3289 120631.71 487090.51
N2632 120634.60 487090.33
N1876 121296.90 486936.36
N178 121298.38 486923.29
N3644 121523.68 486380.31
N1229 121062.76 486321.74
N1814 121331.60 487299.57
N253 121483.05 486103.85
N1428 121904.97 487058.45
N1278 121819.86 487038.97
N2511 120748.20 486787.80
N862 121638.59 487331.06
N1947 120809.69 487281.05
N1763 120810.21 487291.80
N4284 120860.18 486542.46
N3382 120849.20 486534.29
N1860 121097.97 486766.47
N2772 121109.55 486751.39
N361 121339.00 487087.00
N469 121187.18 487133.66
N3893 121758.46 486737.84
N482 121757.28 486736.03
N149 121179.90 486347.80
N117 121405.96 486665.33
N876 121166.00 487100.29
N4253 121175.33 487111.64
N3478 121277.82 487252.37
N2498 121329.27 487251.09
N1740 121554.51 487076.73
N181 121552.53 487078.13
N1742 121652.23 486611.30
N1680 120453.80 486961.70
S40 120406.00 486936.60
N1525 120942.53 486153.84
N3305 121375.73 487382.08
S41 121300.76 487595.14
N2092 120982.63 486718.94
N3089 120965.77 486734.81
S42 122016.20 486777.55
N2301 120952.47 487206.81
N2383 120951.12 487187.82
N1394 120738.34 486598.00
N1711 120541.86 487085.06
N2250 120540.49 487088.46
N4092 120719.71 486233.06
N739 120711.83 486227.34
N2549 121417.76 486971.96
N4181 120820.06 486328.51
N2855 121253.10 486932.05
N3037 121347.73 487362.99
N2097 120781.39 487458.24
N4039 121365.19 486984.33
N3333 121246.80 486942.35
N2463 120801.82 486393.54
N1626 120812.93 486381.24
N1869 121163.54 487378.59
N545 121044.25 486838.60
N2999 121239.81 486787.65
N2200 121242.67 486789.08
N2028 121408.59 487356.61
N2453 121726.00 486983.99
N2832 121552.04 486260.19
N3377 121728.45 486224.03
S43 121801.85 486246.16
N1182 121315.75 487153.48
N216 120951.16 487219.08
N1027 120950.30 487219.10
S44 121597.57 487496.59
N3302 121433.16 487034.67
N2033 121364.93 487263.27
N953 121363.35 487255.59
N88 121635.00 486793.37
N662 121348.25 486622.09
N1773 121274.86 487549.27
N3048 120563.57 486872.73
N1905 121663.68 487034.84
N3419 121665.19 487033.88
N2706 121937.75 487053.77
N3292 121939.20 487051.74
S45 122013.72 486776.00
N3283 122003.90 486786.35
N2636 121138.11 486720.69
N3432 120951.30 486498.70
N3934 121981.79 486829.74
N537 121107.45 486357.32
N3668 121145.76 486348.48
N1458 121522.45 486869.35
N369 121531.35 486172.44
N3915 121706.87 486914.78
N2544 121708.92 486913.67
N1586 121234.04 487025.80
N395 121224.11 486990.89
N2197 121293.64 487033.30
N4259 121777.51 487163.33
N3952 121787.69 487180.59
N1328 121189.35 487363.19
N2123 121815.58 487015.56
N2783 121342.66 487111.22
N3814 121780.06 486658.97
N1422 120973.64 487388.70
N3323 120899.46 486538.42
N4098 120808.82 486526.05
N695 121461.15 486080.14
N1822 121044.88 486454.84
N2089 121025.70 486472.86
N1179 121520.34 486576.96
N3074 121167.08 487254.97
N3450 120916.40 486180.30
N1534 121513.11 486176.66
N187 121243.21 487101.77
N1809 121071.98 486871.19
N3303 121158.06 487297.08
N1735 121806.21 486980.23
N2723 121784.79 486986.88
N934 121258.49 487066.00
N328 120764.90 486151.70
N272 121166.21 487589.66
N2574 121147.08 487561.11
N410 121095.96 486946.58
N3363 120587.37 486553.52
N800 120586.42 486555.16
N420 121722.64 487394.78
N3060 121711.65 487399.92
N243 121443.91 486774.38
N2308 120650.01 486934.43
N2546 120647.61 486934.58
N1955 121601.94 486650.81
N2987 121605.20 486635.90
N2996 121696.78 487328.51
N37 121403.10 486087.40
N1264 121167.06 486880.56
N3820 121384.24 486595.32
N1090 121617.44 486322.18
N2106 120785.00 487367.30
N2213 120587.99 486552.46
N2459 120930.93 486902.42
N1937 121495.75 487189.18
N2068 121360.78 487221.78
N818 121919.23 487061.59
N2780 121917.30 487060.66
N3434 121219.71 487241.96
N767 121977.57 486693.59
N1755 120548.41 486554.62
N305 120563.50 486563.14
N4350 120602.38 486678.92
N220 121490.28 487375.66
N1321 121386.94 486964.17
N1341 121919.50 487032.35
N4023 121922.38 487033.67
N697 121739.31 487188.70
N2206 120542.44 486480.45
N3632 121165.64 487342.44
N2975 121420.00 487216.94
N2896 121597.97 486934.81
N3886 121256.32 487566.52
N3151 120919.23 486315.75
N3587 121332.43 486776.17
N4002 121616.09 487342.68
N1003 121618.09 487341.07
N121 121259.21 487488.95
N3405 121244.18 487487.59
N1485 121006.50 486035.80
N2371 121017.90 486026.80
N1972 121322.48 486789.97
N1936 120946.85 486752.57
N1830 121807.01 486710.54
N3236 120787.22 486179.44
N3373 120547.59 486864.15
N1082 121045.36 487219.53
N565 121044.24 487219.66
N3398 120617.25 487129.29
N1365 121553.66 487218.57
N2244 120915.87 487160.71
N2666 121273.80 486213.10
N3229 121974.72 486650.16
N634 121576.70 487141.94
N3526 121578.78 487140.76
N1416 121656.01 486756.17
N3633 121691.09 486602.85
N24 121155.04 487149.45
S46 121493.83 487547.66
N2349 121151.23 487381.00
N2441 121130.07 487382.60
S47 120645.71 487379.75
N2125 121514.50 486444.50
N2140 121357.53 487378.57
N990 121358.17 487385.25
N2718 121255.22 486652.10
N3708 121281.08 487017.32
N2388 120926.47 487258.77
N3318 120928.55 487258.64
N1531 121171.81 486865.61
N2640 121176.34 486850.28
N3616 121488.63 487524.50
N1896 121393.24 487481.05
N1111 120616.72 486841.22
N1797 120619.06 486841.06
N3542 120655.79 487028.25
N1237 120652.99 487028.43
N3166 120930.73 487382.68
N2394 121018.82 486424.42
N660 121034.83 486409.02
N2883 120682.59 486366.03
N2235 120871.40 486156.90
N830 121971.66 486714.84
N1590 120938.44 486967.57
N2476 120990.43 487266.99
N3571 121001.90 486081.40
S48 122011.43 486877.41
N3946 121999.72 486885.45
N2967 121111.11 486993.40
N4093 121768.01 486975.27
N1927 121768.83 486977.76
N3141 121550.60 486238.83
N1226 121547.07 486238.72
N3675 121254.36 487511.98
N1364 121112.38 486410.64
N3903 121181.38 487085.86
N2173 121405.61 486769.75
N241 121404.33 486768.88
N3796 120923.60 486124.80
S49 120401.60 486935.60
N4309 120718.88 486229.95
N2238 121143.56 487475.91
N1159 121151.68 487499.77
N110 121723.02 486988.32
N2861 121723.77 486990.85
N4299 120823.00 487397.53
N275 121299.36 487431.33
N3335 121305.67 487441.17
N1135 120940.76 487070.89
N2556 120938.08 487071.08
N3173 120973.75 486629.15
N2980 121343.38 486455.60
N976 121052.93 487043.37
N258 121554.89 487406.56
N4152 121830.81 487177.57
N4303 121827.30 487179.60
N4047 120522.69 487084.03
N2132 120830.70 486526.28
N3194 120830.90 486176.20
N3495 120796.20 486204.20
N131 121794.00 487067.85
N3601 121782.36 487072.20
N807 121638.62 487237.83
N3753 120601.83 487040.09
N209 121549.26 486344.75
N690 121547.66 486390.92
N1462 120718.97 486187.79
N4334 121090.07 487269.40
N735 121883.19 486940.88
N2664 121038.40 487377.98
N658 121681.40 486169.23
N2261 121165.79 487101.58
N484 120669.59 487195.83
N1140 121777.10 486968.36
N3618 121345.71 487132.19
N2353 120570.45 487153.06
N2283 120578.56 487133.33
N3786 121682.21 486843.35
N2804 121680.09 486844.57
N3078 120697.85 486428.08
N2062 121109.11 487308.88
N597 121192.40 487234.39
N256 121710.61 486284.38
N485 121716.04 486260.54
N3036 121662.44 487245.56
N1973 120756.88 487045.07
N4096 121813.53 486380.69
N1075 121336.60 486891.50
S50 121221.55 485985.91
N2512 120599.64 487121.14
N3896 120953.44 486849.99
N2551 121840.90 487256.17
N3697 121026.12 487019.73
S51 121828.09 487348.93
N791 121807.83 487303.51
N3491 121390.50 486975.58
N3771 120967.12 487389.74
N3606 120752.79 486266.63
N3641 120736.97 486252.05
N3859 121615.61 487348.32
N3824 121342.30 486139.70
N483 120799.05 487125.90
N1864 120578.45 486571.46
N2296 121360.08 486453.87
N4362 121724.69 486222.99
N1304 121721.16 486238.52
N3582 121538.39 487198.98
N680 121259.88 487534.41
N1573 121377.20 486131.50
N3279 121375.60 486132.00
N2384 121641.73 486765.15
N1146 121064.35 486870.25
N806 121867.57 487067.77
N595 121868.63 487018.02
N1505 121326.11 486504.92
N551 121320.35 486499.52
N3045 121472.33 487090.03
N27 121469.11 487090.65
N583 121414.12 486689.84
N4129 121410.42 486566.30
N1489 121412.44 486575.68
N2998 121431.15 487469.55
N3299 121538.84 486894.51
N3056 121654.33 487397.83
N297 121620.88 487191.94
N300 120667.94 487171.28
N734 121698.57 487406.05
N773 120589.34 486483.03
N2192 121617.29 486651.66
N761 121566.85 487305.58
N2912 120825.73 487279.99
N535 121245.10 486238.90
N1188 120942.99 487106.54
N3780 120942.10 487106.54
N4043 120777.18 486659.71
N4296 120776.26 486661.45
N2503 121562.80 487292.00
N3953 121642.19 486692.31
N3326 121642.63 486694.09
N1372 120788.46 486408.14
N2266 121822.55 486625.34
N2231 120506.23 486973.68
N3529 120774.94 486268.76
N4257 120801.80 486237.90
N2076 121488.21 487445.60
N1943 121459.32 487472.38
N247 121360.88 486956.31
N1603 121668.36 486493.44
N1923 121336.00 486500.57
N3625 121531.95 486154.98
N832 121017.84 486868.54
N165 121615.53 486685.25
N2843 121114.66 487576.38
N650 121116.80 487574.89
N4318 121213.80 486140.80
N627 120611.93 486752.09
N2895 120614.63 486752.64
N1793 120736.90 486242.40
N233 121982.61 486897.07
N1828 121650.88 486782.20
N2318 121411.96 486899.30
N3383 121428.70 486883.77
N4268 121674.44 487165.40
N4148 121094.29 486917.62
N1819 120931.90 486163.10
N384 121480.82 487195.57
N696 121532.73 486131.34
N3937 121287.26 487346.78
N67 120949.28 487159.95
N3015 120934.78 487355.09
N4220 120936.15 487355.00
N3530 121380.04 487152.39
N3073 121390.50 487154.40
N792 120984.66 486665.75
N3107 120986.76 486668.19
S52 120684.90 486174.90
N1884 121691.82 486892.69
N3287 121268.81 486771.52
N754 121633.44 486983.21
N446 121633.60 486983.16
N804 121378.40 487064.54
N2834 121749.50 486959.94
N2277 121747.35 486961.18
N1978 121606.78 486313.44
N2378 121607.50 486311.10
N2953 120807.07 487308.80
N1165 120804.62 487308.93
N439 121483.46 486425.82
N2486 121504.52 486421.25
N1482 121270.45 486266.55
N189 120695.06 486837.77
N2005 121412.10 486687.67
N3956 121946.69 486997.87
N655 121930.20 486980.90
N3562 121177.56 487268.87
N2691 121949.53 487002.25
N555 120450.90 486528.20
N604 120616.54 486917.64
N3055 121484.70 486804.82
N34 121482.33 486808.91
N250 121719.87 487198.71
N1455 121204.95 486662.62
N200 121577.75 486821.09
N4354 121306.68 486799.67
N1471 121771.55 486587.47
S53 122011.06 486594.62
N2693 121961.14 486579.50
N1949 121074.99 486172.35
N996 120700.67 486642.30
N1592 120664.45 486900.28
N1157 120705.22 486897.73
N1974 120562.69 487172.99
N4185 121805.41 487250.70
N2306 121251.55 486799.60
N2516 121079.64 486620.17
N268 121670.16 487051.49
N2576 121669.70 486980.60
N3867 121659.07 486962.30
N907 121906.66 487053.12
N2992 121522.54 486418.71
N3904 121523.04 486397.92
N2382 121263.74 487019.59
N2152 121296.40 486505.16
N1498 121222.07 486070.34
N3384 121836.45 486890.71
S54 120488.58 486437.34
N3101 120492.80 486431.66
N712 121154.20 487577.04
N3815 121151.80 487578.65
N1870 120905.63 487005.76
N3447 120587.67 486883.13
N1672 120588.81 486880.95
N1613 121213.83 486060.66
N3843 121170.21 487305.10
N479 121176.65 487302.13
N2733 120857.42 486332.43
N2021 120874.26 486314.21
N2151 121613.31 487202.65
N2366 121737.55 487388.64
S55 121747.22 487402.29
N2941 121382.99 486937.71
N2715 121383.13 486935.41
N3954 121301.24 486795.88
N2796 121726.09 486919.59
N704 121724.00 486920.79
N3199 121610.09 487090.97
N2661 121937.72 486592.05
N3374 121071.18 487498.05
N1821 121272.01 487161.08
N2934 121267.91 487141.54
N765 120575.92 487109.47
N2236 120658.09 486543.11
N3557 121498.37 487148.98
N2607 121495.16 487150.93
N1663 121077.74 486423.52
N4261 121793.55 486825.04
N1832 121791.34 486826.54
N639 121743.97 486671.69
N2882 121232.52 486519.87
N2806 120866.67 486622.81
N1799 120514.11 486696.78
N558 121454.44 487237.97
N440 121505.19 487017.67
N3160 121750.39 487193.61
N1686 120948.30 486168.70
N3425 121019.92 487456.97
N2558 120960.72 487323.00
N1496 120926.83 487310.88
N2328 121654.71 486601.89
N3007 121629.66 487446.70
N2968 121639.23 487466.17
N2562 121959.25 486848.44
N4140 121983.19 486832.04
N3899 121548.01 487063.56
N158 121545.51 487064.96
N1975 121149.64 487131.18
N1616 121238.88 486054.97
N1160 121243.30 486073.50
N454 121463.60 487233.60
N3830 121339.39 487417.55
N232 121360.22 487401.19
N3688 121642.40 487335.49
N3435 121550.62 487214.75
N4115 121554.56 487213.36
N3059 121358.19 487386.47
N2765 121463.85 487030.78
N4114 121357.27 487199.78
N3483 121968.14 486832.92
N320 121982.30 486823.21
N1732 121244.88 486962.14
N2937 121849.81 487168.26
N2042 121358.03 487064.16
N4288 121104.74 487561.98
N4017 121106.84 487560.52
N3460 120610.88 486801.36
N4333 120604.30 486703.11
N1659 121832.55 486344.54
N2284 121770.70 486325.68
N3737 121564.49 486761.31
N523 121576.63 486762.22
N1901 121651.11 487020.72
N55 120636.25 487160.80
N3390 120638.78 487160.65
N3622 121955.65 486844.56
N3797 121954.52 486842.35
N418 120744.70 486166.00
N721 120772.80 486144.10
N1941 121421.19 486324.37
N645 121371.07 486335.62
N2876 120552.86 486611.82
N1395 120959.24 487306.78
N679 120957.81 487285.12
N1712 121797.51 487197.49
N2423 121307.19 487476.61
N751 120935.91 486922.38
N221 120715.42 486268.07
N1306 121484.20 486895.90
N2596 121521.26 486471.80
N929 121875.39 486990.40
N3215 120542.70 486711.51
N66 121572.39 487445.85
N1601 120644.34 486632.97
N1043 120642.60 486631.98
N3242 120658.40 486228.60
N2909 121569.91 487102.62
N875 121567.54 487103.96
N1474 121525.62 487254.30
N230 121523.97 486862.64
N3834 121241.64 486696.64
N858 121006.20 486220.10
N471 120896.46 486543.22
N4202 121259.06 486693.57
N267 121526.15 487439.40
N1303 121493.76 487457.81
N4273 121880.89 486903.28
N752 121049.60 486210.00
N1946 121788.07 487025.97
N2631 121813.21 486530.57
N2662 121812.74 486531.93
N963 121662.53 487228.83
N490 121194.34 487449.57
N2245 121681.82 487070.57
N1913 121078.17 487274.45
N553 121291.47 486299.75
N3837 120557.01 486718.73
N289 120748.63 486698.42
N2077 120755.65 486685.28
N2571 121101.26 487074.22
N2481 120787.80 486180.33
N612 120788.60 486181.34
N2867 121597.12 486763.88
N336 120744.50 486667.18
N1575 121175.64 487300.81
N1945 120758.99 486676.30
N281 121209.14 486525.15
N2897 121185.36 486530.41
N417 121495.26 486950.02
N2346 121847.70 486950.01
N137 121335.50 486884.50
N2278 120857.50 486731.80
N132 120634.11 487195.25
N17 121713.51 487134.93
N1754 121456.60 486803.99
N510 121462.36 486794.28
N4034 121100.48 486963.85
S56 121261.40 485995.20
N2649 121688.35 486592.94
N1113 121544.59 486843.81
N3731 121702.87 486299.64
N3970 121965.53 486882.72
N3553 121147.68 486875.41
N231 121418.30 486033.50
N1767 121264.25 486176.06
N4232 120685.20 486227.60
N392 121742.44 486512.11
N903 120822.00 486214.60
N3417 120758.53 486204.44
N94 120758.79 486204.72
N3350 120815.92 487347.23
N3752 120813.07 487305.14
N3201 120974.15 486861.69
N1971 121692.33 486754.22
N2204 121120.63 486691.26
N2750 121106.24 486699.57
N2668 121352.29 486853.83
N1995 121773.39 486875.59
N1565 121513.82 486104.65
N713 121533.75 486100.45
N2964 121317.82 487540.70
N310 120667.75 486293.19
N1430 120477.80 486827.90
N2215 120457.40 486817.10
N103 121347.07 487247.31
N3004 121810.51 486950.35
N1743 121379.20 487505.68
N2046 121138.99 487444.34
N464 121910.10 487081.40
N3366 121908.02 487080.59
N2523 121420.04 486963.01
N3982 121266.30 486248.30
N125 121294.30 487424.50
N1032 121741.50 486979.45
N3488 121254.29 487419.17
N945 120978.17 486462.59
N3596 121259.30 486216.40
N245 120726.50 486232.20
N304 120728.80 486232.40
N3517 121191.11 487307.34
N3336 121191.72 487284.67
N1847 121741.72 487172.05
N2330 120567.62 486724.30
N4159 121650.66 486952.77
N1378 121648.08 486954.29
S57 121658.11 487461.07
N2795 121781.56 486525.63
N2429 121555.24 487076.39
N1877 121982.26 486730.16
N2102 120483.30 486903.20
N1892 121787.32 487295.52
N3691 121334.98 486495.89
N2906 121347.65 486300.98
N529 121580.72 487117.88
N1320 121148.10 486051.80
N1397 121700.17 486995.16
N3019 121700.92 486997.69
N4209 121530.92 487496.56
N3539 121710.58 486988.84
S58 121428.84 487564.87
N2538 121416.67 487553.88
N1881 120530.92 486855.28
N2572 120633.80 486668.73
N237 120631.50 486668.87
N3996 120856.70 486174.60
N3770 121326.50 486110.90
N2485 121344.60 486106.70
N607 120751.12 486365.78
N894 121985.08 486916.05
N3429 121274.46 486319.11
N3579 120736.17 486632.38
N3300 121721.94 486311.13
N403 121364.50 486102.30
N1617 121078.82 486619.28
N3372 121078.10 486618.49
N3598 121081.70 487373.33
N1443 121052.64 486845.08
N512 121205.71 487478.06
N1318 121128.24 487068.97
N3629 120586.64 487114.80
N1909 121006.00 487383.80
N1611 121857.08 486872.62
N3067 120649.54 486923.45
N2198 120947.30 486082.50
N2501 121085.04 486917.93
N2680 121816.70 486594.66
N1098 121920.05 486841.12
N2805 121288.74 486786.79
N3971 121341.90 486137.80
N3308 121228.48 486932.58
N2387 121100.21 486271.07
N76 120502.25 486820.97
N2526 120501.10 486823.12
N2905 120943.40 486153.20
N2225 120944.12 486152.58
N2651 121374.30 486129.80
N2994 121374.80 486131.70
N2309 121354.50 486039.80
N548 121404.42 487437.76
N346 121389.07 487419.78
N1131 121291.13 487398.56
N1583 121167.12 487308.84
N2040 121418.20 486119.30
N729 121703.15 486470.63
N3354 121702.38 486473.13
N3583 121533.65 486113.68
N223 120694.10 486205.70
S59 121887.62 486361.30
N793 121638.50 486197.20
N7 121684.03 486677.97
S60 121535.57 486062.71
N436 120732.97 486706.41
N2223 121859.92 486869.11
N3687 120978.80 486170.80
N1039 120961.00 486138.40
N684 120919.20 487213.25
N2803 121441.70 486084.60
N2433 121059.93 486440.60
N2011 120519.87 487173.56
N73 120518.89 487175.91
N1042 121421.29 487035.65
N3497 121482.25 486107.40
N2681 121470.11 487161.67
N1782 121453.93 487166.19
N2252 121165.27 486503.59
N4153 121335.93 486804.50
N337 121337.45 486805.53
N1771 121132.40 487082.06
N252 121908.76 487055.66
N2856 121910.91 487056.65
N423 121432.89 486561.22
N2756 121057.79 486687.00
N357 120941.94 487089.12
N1275 120939.43 487089.30
N2058 121247.41 487559.25
N4224 121551.15 487367.47
N1284 121431.03 486437.78
N43 121453.85 486432.24
N1551 121589.09 487362.00
N4046 121145.40 487464.40
N3803 120725.00 486166.20
N3235 121150.70 486186.70
N2023 121173.30 486181.70
S61 122017.75 486805.11
N3069 120543.00 486474.04
N3271 120540.97 486472.48
N285 121632.01 486782.38
N4271 121634.00 486781.33
N1572 121400.88 486941.46
N1831 120582.59 486790.57
N799 121859.76 487097.90
N3549 121610.57 486277.43
N2627 121796.90 486909.78
N3443 121808.06 486925.81
N283 121691.58 487086.66
N147 120798.88 486442.29
N3986 120797.12 486440.77
N2317 120653.54 486342.79
N2275 121503.63 487200.74
N837 121659.52 486680.75
N2443 121858.62 487107.58
N2762 120648.42 486923.54
N3183 120647.15 486923.65
N1834 121754.10 486617.97
N152 121760.98 486615.75
N1688 121225.69 486112.69
N897 121355.66 487492.00
S62 120842.00 486079.08
N961 120953.20 487501.49
N1389 120966.30 487524.64
N3228 120630.60 487038.89
N3476 121106.09 486979.79
N2520 121458.63 486436.84
S63 122006.91 486732.65
S64 121697.34 487451.71
N3876 121397.49 486481.43
N1507 121075.51 486346.62
N2146 121662.11 487403.75
N2917 121664.92 487401.50
N456 121756.21 486843.45
N3602 121758.32 486842.01
N4042 121577.00 486649.88
N718 121889.29 486896.53
N169 121153.66 486713.64
N2753 121153.02 486711.18
N3833 121650.10 486946.41
N685 121291.40 486151.30
N1872 121869.34 486496.48
N4321 121872.03 486497.29
N3698 120566.91 487237.43
N1907 121112.96 486890.93
N3471 121920.02 487104.28
N3656 121199.15 487108.66
N2094 120790.39 486998.82
N2348 121921.64 486973.90
N3725 121143.19 487197.35
N3245 121147.86 486801.68
N3394 121140.44 486822.00
N1957 121664.16 487276.87
N568 121974.20 486578.85
S65 121974.88 486576.65
N3519 121308.53 486650.42
N1633 120628.88 487031.71
N3662 120631.01 487031.57
N1058 121719.48 486502.20
N1172 121718.93 486504.07
N3039 120467.50 486627.70
N4243 120474.40 486612.50
N1568 121381.11 487126.96
S66 121737.87 486167.46
N2871 121014.08 486928.28
N1059 120500.05 486527.65
N1037 121769.29 486991.94
N3560 121493.44 487219.32
N2187 121620.24 487450.60
N1698 121516.25 486841.35
N3412 121054.40 486844.10
N4351 121739.71 486510.95
N2354 121178.53 486706.57
N979 121177.90 486704.16
N3140 121404.50 487540.32
N3472 120987.48 486669.01
N335 120989.10 486670.66
N2201 121475.22 486695.65
N1944 121458.78 486437.54
N2410 121459.31 486439.95
N2209 120925.73 487293.44
N3531 121275.41 486288.53
N260 121057.92 486387.19
N1599 121102.57 487383.63
N2448 121124.27 487381.76
N1116 121719.47 487338.22
N1990 120587.29 486339.61
N62 121343.38 487354.41
S67 121267.12 487594.13
N2779 120842.12 487055.71
S68 120732.27 487461.54
N3441 120768.64 487458.47
N2090 121498.63 487187.63
N1850 120659.40 486227.90
S69 122019.95 486682.67
N495 120416.40 486739.10
N2172 120417.50 486737.70
N1958 120481.40 486517.00
N1777 121439.43 486468.32
N4021 121438.91 486466.10
N4186 121470.97 486114.69
N2592 121721.86 486944.85
N3751 121705.59 486916.59
N1000 121416.52 486941.19
N1289 120434.80 486698.30
N2604 120432.30 486697.20
N2086 120778.83 486857.35
N859 120776.75 486857.46
N3692 120457.10 486946.20
N2722 121373.72 486822.51
N2355 120526.34 486516.39
N3312 120525.17 486518.31
N1046 121133.04 486448.15
N3926 120798.00 487110.12
N1213 121657.90 486203.02
N3492 120767.49 486681.26
N1902 120768.86 486681.94
N29 121855.21 487130.94
N1558 121858.12 487099.47
N3540 121375.22 486810.41
N472 121919.42 487027.01
N2010 121911.23 487045.15
N1180 121134.55 487084.75
N2751 120807.60 486190.60
N3091 120806.10 486188.80
N813 121620.76 486895.10
N3810 121036.44 487144.27
N4142 121034.02 487144.55
N49 121705.87 486683.83
S70 122008.53 486767.05
N311 121982.79 486768.45
S71 120409.70 486644.70
S72 120548.71 486321.60
N1150 120559.69 486329.86
N1034 121402.17 487153.25
N3304 121893.83 487070.49
S73 121967.87 486550.91
N4222 121967.09 486553.52
N363 121544.41 486680.66
N3065 121121.14 486587.23
N1092 121419.73 487456.12
N194 121317.36 487027.44
N4033 121604.99 487456.98
N2293 121628.24 486448.82
N2018 121627.77 486450.35
N1574 120454.40 486519.00
S74 121734.09 486166.66
N3172 121548.97 487093.22
N139 121551.27 487091.95
N1796 120415.70 486736.90
N2898 121913.80 487007.99
N4237 121739.28 486512.84
N824 121772.69 486522.94
N1426 121615.35 486686.25
N3931 120780.71 486912.49
N1890 120779.37 486912.57
N1062 121475.64 487089.55
N1433 121804.12 487225.99
N637 121408.79 487295.34
N4266 121532.85 486205.63
N3397 121494.35 487189.84
N316 120950.26 487174.13
N4052 121104.01 487384.95
N698 121118.73 487383.70
N2118 121743.57 487373.47
N493 120686.07 486565.26
N1356 120765.98 487058.62
N1080 121654.79 486613.82
N362 121010.32 486820.00
N393 121012.12 486821.46
N3792 121740.74 487278.17
N3613 121486.12 487447.40
N4006 121620.24 486766.45
N4123 120966.74 487158.05
N3420 121238.40 486169.30
N2162 121237.90 486162.40
N1849 121662.60 486518.22
N1808 121656.96 486542.56
N3473 120539.88 486752.07
S75 121638.19 487485.17
N2321 121089.89 486370.93
N649 121091.21 486373.30
N3538 121232.61 486963.94
N2091 121363.70 487391.84
N3150 120784.00 486464.39
N476 121172.02 487256.22
N4241 120965.99 487439.57
N198 120962.84 487439.84
N378 121348.67 487275.36
N3809 121410.74 486625.22
N2219 121713.71 487006.20
N1571 121712.92 487003.87
N3218 121121.61 486698.76
N592 121709.42 487117.05
N3514 121118.49 487043.79
N572 121249.46 487021.96
N3868 121013.30 486187.90
N1398 121013.90 486190.30
N2901 121412.60 486474.31
N4010 121412.10 486472.23
N4104 120979.61 486515.95
S76 121131.72 487609.60
N1695 120598.35 486559.19
N4326 120597.04 486561.41
N3146 121534.22 486678.81
N586 121095.32 486978.50
S77 121750.05 487382.63
N3298 121398.50 486068.50
N1015 120865.94 486574.34
N1429 120867.49 486575.96
N269 121892.37 486891.09
S78 121855.92 487263.98
N2169 121171.42 486677.86
N651 120916.00 487077.96
N3301 120918.61 487077.80
N2744 121307.74 486689.56
N3427 120571.86 486688.16
N922 120844.33 487447.27
N1373 121336.50 486915.10
N3117 121600.68 486661.60
N3309 121091.09 486992.07
N3855 121578.61 487367.13
N2450 121096.13 487370.85
N1705 120767.17 487058.55
N2777 120768.80 487058.45
N2272 121224.39 487290.83
N567 120931.42 486795.04
N4080 121051.30 487126.91
N4124 121745.62 486649.37
N1752 120835.78 487464.37
N3110 121818.06 486587.45
N3263 121806.20 486585.72
N1194 121628.54 486447.85
S79 120429.10 486991.90
N2963 121451.47 486972.08
S80 121999.87 486907.17
S81 121185.40 487616.34
N3619 121721.27 486343.33
N1366 121724.46 486341.77
N4024 121477.44 487226.92
N1669 121235.47 487294.39
N1564 121720.31 486505.21
N831 121166.76 486919.62
N341 120536.07 486544.29
N4018 120537.23 486542.30
N542 121666.33 486846.67
N652 121669.22 486845.13
N3985 121086.94 486945.08
N3506 120884.01 486348.79
N1685 120882.06 486346.98
N3880 120984.04 487001.12
N2475 121467.99 487478.74
N3092 121392.48 487524.01
N2601 120785.59 486645.69
N3174 121431.92 487337.51
S82 121015.10 485988.20
N2833 121950.94 487004.27
N3823 121778.73 486802.81
N340 121776.36 486804.42
N2412 121144.66 487562.71
N2554 120603.23 486645.53
N3543 121447.26 486951.52
N1728 120528.13 486834.54
N1288 120527.18 486836.40
N465 120937.50 486249.90
N3912 120937.60 486249.95
N4248 121727.81 487374.49
N2839 121295.53 486501.04
N2184 121295.01 486498.82
N1520 121161.99 486548.45
N4013 120772.00 487173.80
S83 120419.10 487034.40
N2482 121543.82 486765.48
N186 121931.12 486609.59
N871 120458.50 486541.50
S84 121534.77 487583.00
S85 122011.47 486739.92
N56 120550.88 486730.60
N1012 121621.22 487355.58
N3762 120922.28 486724.41
N4062 121635.17 486582.65
N4070 121314.42 486348.02
N4263 121374.27 487403.70
N3396 121332.37 486650.03
S86 121709.63 487419.99
N1490 121293.53 487384.80
N4051 121180.82 487584.85
N2381 120929.51 487367.22
N3838 121582.57 487255.08
N3755 120836.42 486360.20
N3400 120838.01 486361.68
N270 121809.58 486921.37
N1540 121811.64 486919.96
S87 122011.73 486812.59
N2141 121610.62 486884.00
N1287 121608.08 486885.54
N1259 121225.06 486115.38
S88 122000.35 486905.56
N389 121903.72 487109.34
N1246 121123.51 487412.93
N3763 120617.87 486606.77
N116 121971.44 486689.01
S89 120530.97 487251.07
N2055 121679.09 487073.28
N3407 121468.28 486951.19
N1811 121700.92 487102.42
S90 121948.42 487148.73
N3609 120899.20 486116.80
N3523 120897.70 486115.00
N1350 120520.00 487192.60
N4337 121314.74 487409.72
N190 120427.20 486778.60
N2739 121665.62 486505.41
N2487 121686.40 486879.60
N3872 121688.52 486878.46
N2117 121052.46 487276.46
N1478 121033.12 487116.91
N2768 121030.74 487117.19
S91 120502.75 487185.55
N740 120591.26 486736.40
N2807 121383.17 486480.70
N1526 121382.70 486478.55
N3446 121722.80 486669.58
N2793 120960.80 486191.00
N1167 121552.93 487265.99
S92 120522.36 487267.45
S93 120456.20 487085.90
N885 121192.75 487448.30
S94 121685.89 486153.66
N2973 121432.51 486288.06
N1467 121433.04 486289.44
N161 121761.70 486673.41
N53 121036.94 486834.06
N2623 121296.86 486936.84
N2360 121293.00 486148.90
N2224 120685.28 486564.58
N3607 120684.23 486563.66
N3630 120633.50 486652.03
N1576 120631.72 486651.07
S95 121873.15 487243.03
N3773 121919.67 487108.10
N982 121918.07 487109.91
N3930 121292.71 486782.51
